35
Coordinates from ORCA-job file
  C   -4.18259619080004      1.68825166501926     -1.61293369913126
  O   -3.74519643907696      1.13463143850310     -0.40070242853905
  C   -2.58264063120602      0.45044891944054     -0.37945820631591
  C   -2.20491799492659     -0.05308079489529      0.86976997094858
  C   -1.02718893601161     -0.79109518091100      0.98282893977154
  O   -0.59442035432795     -1.30253752540660      2.14590305148708
  C   -1.37380665398353     -1.11435454751808      3.29797403058798
  C   -0.21660796014693     -1.03234401151951     -0.14853721683948
  S   1.20823898362284     -2.07621324235677     -0.00589058631370
  C   2.42983370452190     -0.91501101098658      0.57521220361215
  C   2.71281825841348      0.25493951657100     -0.13843804839670
  C   3.71343791038859      1.11835110398103      0.29527430585741
  C   4.44732605686795      0.79628843719319      1.43769866821141
  Cl  5.71667487426904      1.86237353105216      1.96622857232918
  C   4.17915762200905     -0.36443606544459      2.15768022211675
  C   3.16182673985395     -1.21496442518779      1.72591873813636
  C   -0.60345020516700     -0.49154579723632     -1.38410048703723
  O   0.22585052966261     -0.70416673199452     -2.42473951741252
  C   -0.11028236901313     -0.19596474211682     -3.68835603704849
  C   -1.79032542641025      0.24860828199310     -1.51183451936394
  H   -3.46314611076307      2.42732509790262     -2.00205563637992
  H   -4.34594878852814      0.91047961665570     -2.37713486054819
  H   -5.13390714582649      2.18957410814624     -1.40478649661367
  H   -2.85780274557976      0.15331157278005      1.71402875462857
  H   -0.84986903297643     -1.62335304202152      4.11402363671907
  H   -1.47743679561413     -0.04506222535877      3.54320632546617
  H   -2.37694137571479     -1.55513102719412      3.17939987753605
  H   2.14597200632901      0.47370900323997     -1.04551553042723
  H   3.94596853407454      2.03048305111244     -0.25461342030969
  H   4.75905604237701     -0.59212531008889      3.05210870668757
  H   2.92220942886963     -2.11658494914070      2.29176177489753
  H   0.69965034515721     -0.49000875895065     -4.36459874821966
  H   -1.05923579967319     -0.61878259141371     -4.05642440661743
  H   -0.18734847679355      0.90369742271602     -3.67452440958540
  H   -2.08485160387725      0.65438921343580     -2.47457352389393
