35
Coordinates from ORCA-job file E -1663.409250479265
  C      -4.011900      2.049000     -1.354800
  O      -3.556100      1.306000     -0.228800
  C      -2.432600      0.465200     -0.233000
  C      -2.103000     -0.201900      0.949600
  C      -0.987400     -1.056500      1.008800
  O      -0.640000     -1.742900      2.183700
  C      -1.335600     -1.632400      3.420800
  C      -0.193600     -1.232500     -0.136900
  S       1.248400     -2.309300     -0.068400
  C       2.346700     -0.978000      0.422600
  C       3.013500     -0.222100     -0.550200
  C       3.864000      0.819700     -0.167400
  C       4.055700      1.105500      1.189100
  Cl      5.122000      2.413000      1.668900
  C       3.398200      0.344700      2.162500
  C       2.547600     -0.697300      1.780300
  C      -0.518800     -0.577500     -1.336700
  O       0.290100     -0.794800     -2.464100
  C       0.097800     -0.174700     -3.731100
  C      -1.638600      0.273900     -1.377300
  H      -3.226400      2.760700     -1.686100
  H      -4.279300      1.360400     -2.184000
  H      -4.914700      2.625600     -1.067200
  H      -2.726900     -0.046800      1.819300
  H      -0.836500     -2.274600      4.175000
  H      -1.313000     -0.581400      3.778600
  H      -2.385100     -1.974700      3.301000
  H       2.873700     -0.438800     -1.601300
  H       4.373100      1.402700     -0.924300
  H       3.545900      0.559000      3.213200
  H       2.045800     -1.283100      2.539500
  H       0.888500     -0.521700     -4.427300
  H      -0.891800     -0.456700     -4.148400
  H       0.172300      0.928800     -3.631100
  H      -1.891900      0.783600     -2.294700
35
Coordinates from ORCA-job file E -1663.429382441788
  C      -3.948745      1.897620     -1.388269
  O      -3.558878      1.219642     -0.221724
  C      -2.455821      0.430212     -0.238970
  C      -2.116634     -0.215113      0.946584
  C      -0.988610     -1.037296      0.988283
  O      -0.620388     -1.674765      2.125325
  C      -1.376494     -1.501681      3.296700
  C      -0.192133     -1.214932     -0.150956
  S       1.266142     -2.259957     -0.086186
  C       2.400994     -0.969351      0.430131
  C       3.077033     -0.204757     -0.524732
  C       3.948234      0.807900     -0.123632
  C       4.146068      1.050580      1.234893
  Cl      5.232700      2.316884      1.738082
  C       3.484272      0.285532      2.194191
  C       2.613566     -0.726079      1.790045
  C      -0.549040     -0.564608     -1.338450
  O       0.235828     -0.753198     -2.427522
  C      -0.068529     -0.092018     -3.628515
  C      -1.677159      0.261476     -1.386282
  H      -3.161147      2.595841     -1.718684
  H      -4.180666      1.185416     -2.198151
  H      -4.851769      2.468899     -1.147359
  H      -2.740805     -0.064067      1.826600
  H      -0.895546     -2.093815      4.083241
  H      -1.390971     -0.441945      3.601870
  H      -2.408031     -1.864870      3.155473
  H       2.916966     -0.395009     -1.585883
  H       4.471950      1.406731     -0.868774
  H       3.646806      0.477018      3.254844
  H       2.091671     -1.323487      2.537547
  H       0.693824     -0.381602     -4.360133
  H      -1.059243     -0.397560     -4.004598
  H      -0.039186      1.002550     -3.493661
  H      -1.946161      0.769910     -2.311527
35
Coordinates from ORCA-job file E -1663.430798780234
  C      -3.986064      1.863497     -1.399949
  O      -3.604410      1.190124     -0.231326
  C      -2.496288      0.425899     -0.252175
  C      -2.171170     -0.214061      0.943991
  C      -1.029205     -1.016646      1.005709
  O      -0.652942     -1.643105      2.133291
  C      -1.447071     -1.503981      3.280350
  C      -0.208303     -1.187768     -0.122379
  S       1.244640     -2.222420     -0.038309
  C       2.418628     -0.955923      0.444294
  C       3.066458     -0.192205     -0.529754
  C       3.968961      0.802420     -0.158055
  C       4.222302      1.026601      1.193214
  Cl      5.343749      2.269852      1.660455
  C       3.591323      0.264745      2.174354
  C       2.689334     -0.727946      1.795827
  C      -0.551428     -0.534370     -1.314644
  O       0.271634     -0.709123     -2.363874
  C      -0.023765     -0.068768     -3.575160
  C      -1.695105      0.274717     -1.388190
  H      -3.209332      2.574778     -1.724640
  H      -4.200226      1.157023     -2.218010
  H      -4.898358      2.418229     -1.158455
  H      -2.816890     -0.065995      1.805402
  H      -0.953000     -2.076801      4.072037
  H      -1.522045     -0.449415      3.590038
  H      -2.457566     -1.911893      3.119355
  H       2.852005     -0.371673     -1.584284
  H       4.474548      1.403038     -0.915117
  H       3.804219      0.447703      3.228177
  H       2.180868     -1.324218      2.554824
  H       0.773952     -0.341224     -4.273732
  H      -0.988353     -0.409704     -3.983776
  H      -0.040233      1.026737     -3.457031
  H      -1.950767      0.781978     -2.312657
35
Coordinates from ORCA-job file E -1663.430862816016
  C      -4.125724      1.786063     -1.396217
  O      -3.634748      1.178349     -0.231887
  C      -2.507599      0.448284     -0.308573
  C      -2.086700     -0.127907      0.893865
  C      -0.921806     -0.898546      0.914439
  O      -0.438970     -1.459000      2.034166
  C      -1.144249     -1.280785      3.233182
  C      -0.174488     -1.107167     -0.263314
  S       1.282304     -2.124732     -0.236623
  C       2.442737     -0.943157      0.445283
  C       3.175884     -0.107805     -0.401436
  C       4.074242      0.816597      0.126812
  C       4.236678      0.895429      1.508314
  Cl      5.352231      2.049041      2.171937
  C       3.521031      0.062341      2.365519
  C       2.623270     -0.857346      1.827821
  C      -0.609836     -0.506046     -1.456456
  O       0.153826     -0.708337     -2.543482
  C      -0.248286     -0.156934     -3.768162
  C      -1.781703      0.268749     -1.490429
  H      -3.401784      2.503305     -1.815681
  H      -4.379973      1.040212     -2.166297
  H      -5.033337      2.324753     -1.104167
  H      -2.683788      0.050094      1.782981
  H      -0.572838     -1.807230      4.005354
  H      -1.221618     -0.215805      3.503261
  H      -2.155947     -1.712822      3.175742
  H       3.027123     -0.181182     -1.479849
  H       4.650108      1.473368     -0.526006
  H       3.666599      0.138458      3.443475
  H       2.041813     -1.508547      2.482517
  H       0.518022     -0.440197     -4.497835
  H      -1.219978     -0.560844     -4.094412
  H      -0.310675      0.941972     -3.718896
  H      -2.111719      0.727473     -2.415144
35
Coordinates from ORCA-job file E -1663.431381110017
  C      -4.137052      1.770194     -1.453111
  O      -3.683187      1.152739     -0.277417
  C      -2.539996      0.438776     -0.316135
  C      -2.160433     -0.141001      0.899796
  C      -0.992001     -0.901834      0.962043
  O      -0.551452     -1.474215      2.096617
  C      -1.297357     -1.302858      3.273727
  C      -0.198132     -1.098813     -0.190075
  S       1.246066     -2.127166     -0.123935
  C       2.441941     -0.937219      0.474663
  C       3.064286     -0.058961     -0.416668
  C       4.003382      0.862175      0.041437
  C       4.319973      0.891861      1.398468
  Cl      5.490339      2.038244      1.976176
  C       3.716769      0.016323      2.299258
  C       2.777189     -0.899475      1.830581
  C      -0.590956     -0.488272     -1.394592
  O       0.217671     -0.673691     -2.455458
  C      -0.138769     -0.116508     -3.692970
  C      -1.768000      0.275946     -1.469447
  H      -3.408535      2.505125     -1.832969
  H      -4.344774      1.031784     -2.244686
  H      -5.065591      2.289833     -1.192451
  H      -2.798929      0.027750      1.762464
  H      -0.762023     -1.847822      4.059515
  H      -1.371098     -0.240487      3.556135
  H      -2.313088     -1.718185      3.173430
  H       2.796275     -0.101159     -1.473405
  H       4.496135      1.551517     -0.644380
  H       3.984351      0.057635      3.355178
  H       2.283544     -1.587872      2.517560
  H       0.656338     -0.392703     -4.394729
  H      -1.096912     -0.520354     -4.058991
  H      -0.207951      0.982186     -3.640825
  H      -2.067921      0.736604     -2.405008
35
Coordinates from ORCA-job file E -1663.431206890041
  C      -4.094350      1.776292     -1.469854
  O      -3.695562      1.133606     -0.287783
  C      -2.550992      0.417215     -0.289344
  C      -2.213799     -0.183184      0.927678
  C      -1.049315     -0.945218      1.016753
  O      -0.653416     -1.538001      2.158285
  C      -1.459107     -1.407572      3.300346
  C      -0.217981     -1.123672     -0.108735
  S       1.216982     -2.164386     -0.005953
  C       2.428186     -0.940950      0.480322
  C       3.027023     -0.128330     -0.486396
  C       3.986104      0.811868     -0.119844
  C       4.349377      0.925478      1.221060
  Cl      5.555314      2.090512      1.680837
  C       3.763039      0.121834      2.197196
  C       2.797296     -0.810336      1.821257
  C      -0.565575     -0.490353     -1.313093
  O       0.283751     -0.640550     -2.349883
  C      -0.011988     -0.024339     -3.575308
  C      -1.735475      0.279320     -1.413913
  H      -3.345725      2.515853     -1.799020
  H      -4.264801      1.052117     -2.283637
  H      -5.033293      2.293722     -1.245747
  H      -2.881458     -0.027230      1.771591
  H      -0.955209     -1.957624      4.102641
  H      -1.567773     -0.351626      3.597140
  H      -2.459322     -1.841041      3.137749
  H       2.727096     -0.238910     -1.529638
  H       4.459219      1.452099     -0.864582
  H       4.063863      0.230405      3.239327
  H       2.318116     -1.445112      2.568233
  H       0.803772     -0.284356     -4.258755
  H      -0.963089     -0.392333     -3.993767
  H      -0.061881      1.072484     -3.474920
  H      -1.998927      0.762418     -2.350442
35
Coordinates from ORCA-job file E -1663.431519609107
  C      -4.142304      1.742920     -1.486585
  O      -3.701270      1.137820     -0.299999
  C      -2.550310      0.433122     -0.317862
  C      -2.174319     -0.134366      0.903820
  C      -1.003298     -0.887901      0.977703
  O      -0.570628     -1.450186      2.120284
  C      -1.343290     -1.293655      3.281542
  C      -0.201657     -1.088038     -0.166424
  S       1.234529     -2.127654     -0.082958
  C       2.437889     -0.935512      0.492380
  C       3.007703     -0.027370     -0.404757
  C       3.964036      0.886012      0.030336
  C       4.354201      0.875947      1.368584
  Cl      5.557641      2.006402      1.913052
  C       3.797683     -0.023806      2.275508
  C       2.835162     -0.928813      1.831584
  C      -0.587329     -0.485343     -1.374632
  O       0.230732     -0.661728     -2.431301
  C      -0.111455     -0.091412     -3.666492
  C      -1.766159      0.273181     -1.461751
  H      -3.412047      2.479741     -1.859848
  H      -4.330313      0.994741     -2.274241
  H      -5.079176      2.257405     -1.247678
  H      -2.820311      0.038923      1.760767
  H      -0.813927     -1.822351      4.081733
  H      -1.447383     -0.231189      3.555451
  H      -2.346400     -1.733370      3.159272
  H       2.685569     -0.042665     -1.447174
  H       4.414609      1.601020     -0.658287
  H       4.120252     -0.010338      3.316712
  H       2.378865     -1.638647      2.523101
  H       0.685602     -0.365982     -4.366038
  H      -1.070649     -0.483848     -4.041746
  H      -0.171975      1.007529     -3.602298
  H      -2.060171      0.729511     -2.401959
35
Coordinates from ORCA-job file E -1663.431634536068
  C      -4.176705      1.708162     -1.522079
  O      -3.724964      1.127041     -0.327804
  C      -2.563690      0.439616     -0.338586
  C      -2.178904     -0.106051      0.890650
  C      -1.000837     -0.847591      0.971566
  O      -0.558099     -1.391419      2.118344
  C      -1.328289     -1.228693      3.280216
  C      -0.200519     -1.057076     -0.172409
  S       1.230385     -2.100709     -0.079222
  C       2.439455     -0.926594      0.517914
  C       2.946974      0.053395     -0.340711
  C       3.919822      0.943416      0.104358
  C       4.392152      0.835368      1.411542
  Cl      5.625284      1.930397      1.962365
  C       3.896201     -0.133739      2.280862
  C       2.913611     -1.013030      1.828515
  C      -0.592494     -0.470983     -1.386261
  O       0.225522     -0.653401     -2.441992
  C      -0.130088     -0.113404     -3.686768
  C      -1.779688      0.274184     -1.481790
  H      -3.458655      2.450525     -1.907552
  H      -4.353941      0.946105     -2.298849
  H      -5.121218      2.211190     -1.289178
  H      -2.827300      0.074078      1.744131
  H      -0.794144     -1.747690      4.083391
  H      -1.437709     -0.164671      3.545050
  H      -2.329641     -1.674159      3.163926
  H       2.564403      0.107506     -1.361353
  H       4.324202      1.713352     -0.553019
  H       4.280051     -0.191722      3.299471
  H       2.502185     -1.776504      2.490651
  H       0.670681     -0.386415     -4.382636
  H      -1.082622     -0.530041     -4.052413
  H      -0.211325      0.985227     -3.643259
  H      -2.079996      0.714431     -2.427275
35
Coordinates from ORCA-job file E -1663.431716450042
  C      -4.204579      1.677275     -1.562267
  O      -3.754068      1.111381     -0.360563
  C      -2.583323      0.440149     -0.356692
  C      -2.197892     -0.085008      0.881335
  C      -1.013372     -0.814604      0.975809
  O      -0.570833     -1.343550      2.128581
  C      -1.348794     -1.179607      3.285088
  C      -0.206582     -1.031374     -0.162742
  S       1.220900     -2.077030     -0.048137
  C       2.438679     -0.913978      0.550021
  C       2.874984      0.130526     -0.272304
  C       3.871752      0.998067      0.162563
  C       4.443019      0.801780      1.420323
  Cl      5.714968      1.863593      1.950347
  C       4.017238     -0.229718      2.253322
  C       3.006782     -1.084711      1.814040
  C      -0.598536     -0.464166     -1.384616
  O       0.227086     -0.650370     -2.434231
  C      -0.122536     -0.123025     -3.685978
  C      -1.791844      0.269758     -1.494377
  H      -3.495594      2.429098     -1.945915
  H      -4.362486      0.907722     -2.335877
  H      -5.159682      2.165659     -1.341538
  H      -2.853845      0.100400      1.727920
  H      -0.818930     -1.694909      4.093299
  H      -1.463311     -0.115223      3.545752
  H      -2.348156     -1.627991      3.162392
  H       2.422503      0.244962     -1.259095
  H       4.226428      1.813299     -0.468106
  H       4.474098     -0.352352      3.235320
  H       2.643732     -1.890883      2.453259
  H       0.683505     -0.399674     -4.374184
  H      -1.071733     -0.545365     -4.053720
  H      -0.207254      0.975639     -3.652450
  H      -2.092226      0.694329     -2.446777
35
Coordinates from ORCA-job file E -1663.431908693438
  C      -4.209659      1.662018     -1.619342
  O      -3.765915      1.114300     -0.407156
  C      -2.594124      0.445268     -0.384328
  C      -2.208051     -0.049037      0.865955
  C      -1.022954     -0.775600      0.977479
  O      -0.581393     -1.278983      2.140793
  C      -1.363736     -1.098207      3.291928
  C      -0.214310     -1.015352     -0.155244
  S       1.209557     -2.062946     -0.008644
  C       2.430972     -0.910993      0.597890
  C       2.721735      0.255542     -0.120203
  C       3.734274      1.107764      0.306159
  C       4.474849      0.772971      1.442253
  Cl      5.770957      1.818290      1.951587
  C       4.193836     -0.379128      2.170314
  C       3.160835     -1.216866      1.747602
  C      -0.606782     -0.479989     -1.389686
  O       0.222821     -0.685214     -2.433285
  C      -0.116129     -0.175538     -3.695188
  C      -1.800210      0.250707     -1.517077
  H      -3.500281      2.411369     -2.007010
  H      -4.360327      0.881673     -2.383642
  H      -5.168678      2.149553     -1.413622
  H      -2.865296      0.156922      1.707011
  H      -0.840372     -1.605659      4.109112
  H      -1.475561     -0.030107      3.538207
  H      -2.363914     -1.544629      3.168231
  H       2.147510      0.471607     -1.023879
  H       3.977167      2.016282     -0.244723
  H       4.774802     -0.606214      3.064246
  H       2.905405     -2.111168      2.317729
  H       0.691814     -0.468191     -4.374317
  H      -1.066373     -0.596897     -4.061458
  H      -0.192799      0.924101     -3.678179
  H      -2.099568      0.652451     -2.479716
35
Coordinates from ORCA-job file E -1663.432017954283
  C      -4.173735      1.699071     -1.600814
  O      -3.740800      1.134532     -0.392275
  C      -2.580422      0.446499     -0.372538
  C      -2.204052     -0.063870      0.874150
  C      -1.027570     -0.805010      0.983220
  O      -0.595592     -1.321259      2.144807
  C      -1.376175     -1.137021      3.296770
  C      -0.217088     -1.041278     -0.148754
  S       1.209813     -2.086032     -0.006687
  C       2.429313     -0.919886      0.574601
  C       2.730592      0.226864     -0.170118
  C       3.727586      1.098066      0.255333
  C       4.439223      0.805408      1.420596
  Cl      5.706831      1.880383      1.938605
  C       4.150741     -0.329968      2.171674
  C       3.136030     -1.188635      1.747727
  C      -0.601883     -0.494392     -1.381001
  O       0.227700     -0.702150     -2.423151
  C      -0.103997     -0.182480     -3.683044
  C      -1.787125      0.249125     -1.505419
  H      -3.450688      2.438722     -1.982024
  H      -4.338485      0.927506     -2.371007
  H      -5.123947      2.202259     -1.391803
  H      -2.858405      0.141627      1.717592
  H      -0.858235     -1.654713      4.111125
  H      -1.474829     -0.068871      3.548742
  H      -2.381265     -1.571540      3.171548
  H       2.177145      0.416604     -1.092128
  H       3.975656      1.992459     -0.316298
  H       4.711440     -0.529461      3.084912
  H       2.876591     -2.069073      2.337458
  H       0.704607     -0.475694     -4.361187
  H      -1.055030     -0.596917     -4.055283
  H      -0.174264      0.917490     -3.659653
  H      -2.079580      0.661732     -2.465876
35
Coordinates from ORCA-job file E -1663.432141792727
  C      -4.166341      1.702155     -1.621244
  O      -3.733279      1.148013     -0.407840
  C      -2.576312      0.455529     -0.383771
  C      -2.199306     -0.043269      0.867724
  C      -1.025828     -0.788147      0.982702
  O      -0.595371     -1.296838      2.147519
  C      -1.373276     -1.102083      3.299741
  C      -0.217643     -1.037360     -0.148800
  S       1.207044     -2.082105     -0.000901
  C       2.428297     -0.920873      0.579835
  C       2.665708      0.280435     -0.099479
  C       3.660129      1.148987      0.336700
  C       4.431068      0.804223      1.448617
  Cl      5.690283      1.880409      1.982504
  C       4.211072     -0.388787      2.129581
  C       3.199686     -1.246387      1.696419
  C      -0.605000     -0.504640     -1.387137
  O       0.221446     -0.728509     -2.427071
  C      -0.110997     -0.223819     -3.693047
  C      -1.787981      0.240699     -1.516975
  H      -3.440991      2.434908     -2.011479
  H      -4.337155      0.924253     -2.383687
  H      -5.113811      2.211480     -1.414693
  H      -2.849269      0.172810      1.711907
  H      -0.854107     -1.616086      4.115746
  H      -1.467187     -0.031852      3.545056
  H      -2.379951     -1.534322      3.180512
  H       2.070802      0.514989     -0.984012
  H       3.860833      2.082795     -0.189004
  H       4.821253     -0.635568      2.998197
  H       2.994039     -2.170159      2.239618
  H       0.697526     -0.525795     -4.367449
  H      -1.062086     -0.642828     -4.060204
  H      -0.180869      0.876384     -3.683651
  H      -2.082326      0.641456     -2.482133
35
Coordinates from ORCA-job file E -1663.432085684548
  C      -4.188094      1.683867     -1.612946
  O      -3.746529      1.133546     -0.400726
  C      -2.582555      0.452145     -0.380949
  C      -2.201205     -0.048043      0.868834
  C      -1.022351     -0.784262      0.980835
  O      -0.586948     -1.294198      2.143441
  C      -1.366407     -1.109066      3.296041
  C      -0.214235     -1.026843     -0.152305
  S       1.209715     -2.071734     -0.012282
  C       2.431778     -0.914490      0.575839
  C       2.717161      0.257558     -0.134159
  C       3.716897      1.119064      0.304388
  C       4.447118      0.793037      1.448196
  Cl      5.714640      1.857602      1.983525
  C       4.177579     -0.369992      2.163355
  C       3.161384     -1.219330      1.726305
  C      -0.604737     -0.489265     -1.388350
  O       0.222201     -0.703684     -2.430109
  C      -0.117183     -0.198011     -3.693912
  C      -1.793001      0.248737     -1.514938
  H      -3.471222      2.423641     -2.005512
  H      -4.352284      0.904450     -2.375304
  H      -5.139809      2.183720     -1.403144
  H      -2.853068      0.159882      1.713524
  H      -0.840172     -1.616925      4.111379
  H      -1.473137     -0.040194      3.541989
  H      -2.368217     -1.552912      3.178075
  H       2.153227      0.476562     -1.042767
  H       3.952558      2.032262     -0.242456
  H       4.756109     -0.600565      3.057887
  H       2.921819     -2.124063      2.287191
  H       0.691622     -0.492748     -4.371230
  H      -1.066465     -0.622279     -4.059567
  H      -0.195116      0.901610     -3.682176
  H      -2.090971      0.651021     -2.478172
35
Coordinates from ORCA-job file E -1663.432088652754
  C      -4.179887      1.690625     -1.611931
  O      -3.744001      1.134615     -0.400285
  C      -2.582141      0.449196     -0.378913
  C      -2.205336     -0.055399      0.870181
  C      -1.028231     -0.794380      0.983288
  O      -0.595606     -1.305333      2.146559
  C      -1.374843     -1.115793      3.298502
  C      -0.217305     -1.035235     -0.147851
  S       1.207759     -2.078914     -0.004781
  C       2.428452     -0.916275      0.575735
  C       2.710603      0.252355     -0.140773
  C       3.710245      1.117533      0.291192
  C       4.444865      0.797820      1.434002
  Cl      5.713310      1.866232      1.960278
  C       4.177499     -0.361338      2.156570
  C       3.160567     -1.213606      1.726836
  C      -0.602717     -0.492915     -1.383152
  O       0.227329     -0.704853     -2.423427
  C      -0.107247     -0.194613     -3.686627
  C      -1.789154      0.247966     -1.510957
  H      -3.459093      2.429223     -1.999443
  H      -4.344111      0.914242     -2.377337
  H      -5.130600      2.193058     -1.403683
  H      -2.858565      0.151612      1.714038
  H      -0.852009     -1.625741      4.114645
  H      -1.476540     -0.046334      3.543705
  H      -2.378732     -1.554787      3.179634
  H       2.142879      0.467683     -1.048187
  H       3.941826      2.029106     -0.260000
  H       4.757806     -0.586420      3.051440
  H       2.922309     -2.114705      2.294026
  H       0.703307     -0.487841     -4.362485
  H      -1.055828     -0.616658     -4.056466
  H      -0.183997      0.905047     -3.671083
  H      -2.082715      0.654927     -2.473450
35
Coordinates from ORCA-job file E -1663.432089665859
  C      -4.181909      1.688912     -1.612350
  O      -3.744511      1.134948     -0.400294
  C      -2.582068      0.450549     -0.379214
  C      -2.204182     -0.053096      0.869917
  C      -1.026577     -0.791338      0.982709
  O      -0.593798     -1.303029      2.145656
  C      -1.373173     -1.114970      3.297756
  C      -0.216357     -1.032709     -0.148839
  S       1.208410     -2.076826     -0.006496
  C       2.429741     -0.915510      0.575184
  C       2.712893      0.254046     -0.139221
  C       3.712915      1.118006      0.294546
  C       4.446078      0.796816      1.437762
  Cl      5.714774      1.863692      1.966365
  C       4.177663     -0.363357      2.158433
  C       3.160790     -1.214524      1.726626
  C      -0.603236     -0.491751     -1.384310
  O       0.225754     -0.704573     -2.425190
  C      -0.110519     -0.196114     -3.688662
  C      -1.789982      0.248670     -1.511733
  H      -3.462181      2.427709     -2.001476
  H      -4.345843      0.911308     -2.376594
  H      -5.132956      2.190648     -1.403984
  H      -2.856997      0.153548      1.714175
  H      -0.849636     -1.624687      4.113605
  H      -1.476143     -0.045737      3.543484
  H      -2.376547     -1.555100      3.178825
  H       2.146261      0.471507     -1.046761
  H       3.945599      2.029931     -0.255614
  H       4.757036     -0.590094      3.053459
  H       2.921196     -2.115928      2.292800
  H       0.699331     -0.489973     -4.365084
  H      -1.059451     -0.618935     -4.056753
  H      -0.187626      0.903540     -3.674534
  H      -2.084647      0.654522     -2.474394
35
Coordinates from ORCA-job file E -1663.432089510428
  C      -4.182596      1.688252     -1.612934
  O      -3.745196      1.134631     -0.400702
  C      -2.582641      0.450449     -0.379458
  C      -2.204918     -0.053081      0.869770
  C      -1.027189     -0.791095      0.982829
  O      -0.594420     -1.302538      2.145903
  C      -1.373807     -1.114355      3.297974
  C      -0.216608     -1.032344     -0.148537
  S       1.208239     -2.076213     -0.005891
  C       2.429834     -0.915011      0.575212
  C       2.712818      0.254940     -0.138438
  C       3.713438      1.118351      0.295274
  C       4.447326      0.796288      1.437699
  Cl      5.716675      1.862374      1.966229
  C       4.179158     -0.364436      2.157680
  C       3.161827     -1.214964      1.725919
  C      -0.603450     -0.491546     -1.384100
  O       0.225851     -0.704167     -2.424740
  C      -0.110282     -0.195965     -3.688356
  C      -1.790325      0.248608     -1.511835
  H      -3.463146      2.427325     -2.002056
  H      -4.345949      0.910480     -2.377135
  H      -5.133907      2.189574     -1.404786
  H      -2.857803      0.153312      1.714029
  H      -0.849869     -1.623353      4.114024
  H      -1.477437     -0.045062      3.543206
  H      -2.376941     -1.555131      3.179400
  H       2.145972      0.473709     -1.045516
  H       3.945969      2.030483     -0.254613
  H       4.759056     -0.592125      3.052109
  H       2.922209     -2.116585      2.291762
  H       0.699650     -0.490009     -4.364599
  H      -1.059236     -0.618783     -4.056424
  H      -0.187348      0.903697     -3.674524
  H      -2.084852      0.654389     -2.474574
