26
Coordinates from ORCA-job file E -424.228246819173
  C       1.552300      0.079900      1.396200
  C       0.775000      0.085300      0.057900
  C       0.949400      1.447600     -0.647400
  N      -0.289400      2.188300     -0.453000
  C      -1.337800      1.178000     -0.488300
  C      -0.758300     -0.095400      0.164500
  C      -1.323100     -0.259000      1.596100
  C      -1.055200     -1.350500     -0.677200
  N       0.069300     -1.526100     -1.589700
  C       1.236400     -1.080400     -0.836600
  H       1.408700     -0.875900      1.942300
  H       2.640400      0.194800      1.201700
  H       1.230200      0.921700      2.045100
  H       1.800000      2.034100     -0.236700
  H       1.131700      1.320700     -1.740300
  H      -0.423300      2.853800     -1.250600
  H      -2.236700      1.558300      0.044000
  H      -1.633200      0.994800     -1.548000
  H      -1.119100      0.644800      2.208500
  H      -0.889100     -1.146700      2.102100
  H      -2.424300     -0.402100      1.553900
  H      -2.003100     -1.261400     -1.250600
  H      -1.143000     -2.251700     -0.026000
  H       0.173300     -2.543000     -1.817500
  H       1.618400     -1.926200     -0.218000
  H       2.050600     -0.783700     -1.532500
26
Coordinates from ORCA-job file E -424.236279887037
  C       1.545326      0.086900      1.387607
  C       0.786124      0.081872      0.055819
  C       0.962559      1.439011     -0.661431
  N      -0.286329      2.174331     -0.433871
  C      -1.350497      1.166532     -0.500277
  C      -0.768574     -0.101485      0.164049
  C      -1.319288     -0.250839      1.586965
  C      -1.065509     -1.360828     -0.669639
  N       0.065579     -1.496590     -1.595843
  C       1.250009     -1.088044     -0.830475
  H       1.399038     -0.847096      1.941619
  H       2.620948      0.195662      1.199454
  H       1.228666      0.923433      2.020125
  H       1.809423      2.004661     -0.252646
  H       1.149288      1.283876     -1.737729
  H      -0.417887      2.851404     -1.176341
  H      -2.241144      1.527349      0.029635
  H      -1.641779      0.955280     -1.543288
  H      -1.121171      0.646347      2.183500
  H      -0.886891     -1.116688      2.100928
  H      -2.406276     -0.396521      1.549003
  H      -2.006630     -1.267086     -1.226313
  H      -1.156789     -2.242356     -0.009562
  H       0.160940     -2.467289     -1.869588
  H       1.631946     -1.913659     -0.203116
  H       2.059019     -0.788176     -1.508683
26
Coordinates from ORCA-job file E -424.238338500911
  C       1.544279      0.093809      1.387853
  C       0.789339      0.078718      0.056164
  C       0.959882      1.431006     -0.672250
  N      -0.283077      2.163882     -0.406839
  C      -1.347556      1.159398     -0.511146
  C      -0.770868     -0.105392      0.164778
  C      -1.319963     -0.244058      1.587082
  C      -1.060999     -1.370291     -0.663227
  N       0.062014     -1.469601     -1.602630
  C       1.248889     -1.098074     -0.823594
  H       1.392375     -0.831398      1.952990
  H       2.620093      0.195470      1.201924
  H       1.230543      0.937685      2.010221
  H       1.816586      1.990719     -0.279123
  H       1.124676      1.261944     -1.749402
  H      -0.416875      2.881388     -1.111853
  H      -2.248196      1.511917      0.004939
  H      -1.615161      0.939751     -1.558098
  H      -1.127429      0.659405      2.174027
  H      -0.883029     -1.100003      2.111536
  H      -2.405241     -0.396233      1.551025
  H      -2.008409     -1.286814     -1.209019
  H      -1.133834     -2.248819      0.002305
  H       0.151139     -2.422950     -1.937497
  H       1.613096     -1.924952     -0.188250
  H       2.067824     -0.806504     -1.492016
26
Coordinates from ORCA-job file E -424.239824726719
  C       1.544987      0.100842      1.389002
  C       0.791547      0.074800      0.057179
  C       0.955723      1.423068     -0.680331
  N      -0.280001      2.153160     -0.381846
  C      -1.342681      1.152469     -0.519726
  C      -0.771742     -0.109764      0.166009
  C      -1.322259     -0.237325      1.588244
  C      -1.055828     -1.378809     -0.657899
  N       0.059184     -1.449183     -1.606597
  C       1.246662     -1.107235     -0.818214
  H       1.387234     -0.816355      1.965885
  H       2.621960      0.194912      1.204128
  H       1.233855      0.954138      2.000146
  H       1.823821      1.980037     -0.308471
  H       1.092279      1.245014     -1.760374
  H      -0.415524      2.910305     -1.043865
  H      -2.256491      1.499245     -0.022970
  H      -1.581402      0.930486     -1.573542
  H      -1.135901      0.674572      2.164489
  H      -0.880486     -1.083994      2.123996
  H      -2.406799     -0.396769      1.552727
  H      -2.010928     -1.309546     -1.192734
  H      -1.105572     -2.257373      0.010447
  H       0.141546     -2.379913     -2.001273
  H       1.589438     -1.939492     -0.177185
  H       2.077479     -0.827289     -1.477327
26
Coordinates from ORCA-job file E -424.240797842737
  C       1.546556      0.107120      1.389431
  C       0.793328      0.071094      0.058397
  C       0.950273      1.416367     -0.686101
  N      -0.277169      2.143480     -0.354974
  C      -1.336503      1.146658     -0.526846
  C      -0.772201     -0.113754      0.167425
  C      -1.325283     -0.230861      1.588911
  C      -1.050718     -1.385938     -0.653306
  N       0.056624     -1.432189     -1.609443
  C       1.243929     -1.114944     -0.813997
  H       1.382806     -0.802209      1.977135
  H       2.624363      0.192571      1.204425
  H       1.239197      0.969519      1.989656
  H       1.830417      1.971637     -0.341264
  H       1.052347      1.231650     -1.769115
  H      -0.413939      2.936725     -0.973549
  H      -2.265612      1.488251     -0.055750
  H      -1.539875      0.925685     -1.588548
  H      -1.146256      0.689090      2.154632
  H      -0.878563     -1.068169      2.135291
  H      -2.408676     -0.398682      1.552742
  H      -2.013598     -1.334694     -1.176133
  H      -1.073087     -2.264567      0.017073
  H       0.132760     -2.340190     -2.055311
  H       1.561578     -1.953571     -0.167669
  H       2.087402     -0.850082     -1.463211
26
Coordinates from ORCA-job file E -424.241199867537
  C       1.548529      0.111044      1.389157
  C       0.795123      0.067632      0.059076
  C       0.944865      1.412017     -0.688911
  N      -0.275726      2.134273     -0.328096
  C      -1.330117      1.140783     -0.534983
  C      -0.772854     -0.117470      0.168478
  C      -1.328466     -0.222780      1.589234
  C      -1.045788     -1.393160     -0.648020
  N       0.052781     -1.416386     -1.612770
  C       1.240652     -1.121180     -0.812234
  H       1.376925     -0.790150      1.987197
  H       2.627245      0.185112      1.203640
  H       1.247399      0.982795      1.978992
  H       1.835954      1.965889     -0.371357
  H       1.012547      1.222101     -1.773986
  H      -0.413169      2.960004     -0.902040
  H      -2.276183      1.476211     -0.094431
  H      -1.493001      0.920743     -1.604108
  H      -1.159041      0.706240      2.143025
  H      -0.875107     -1.048696      2.147463
  H      -2.410182     -0.401829      1.552500
  H      -2.017062     -1.363133     -1.156645
  H      -1.037120     -2.270564      0.025004
  H       0.122902     -2.301104     -2.103404
  H       1.532810     -1.965836     -0.161010
  H       2.096184     -0.872557     -1.451873
26
Coordinates from ORCA-job file E -424.241208413786
  C       1.548265      0.114209      1.389332
  C       0.795365      0.067268      0.059215
  C       0.944867      1.410042     -0.691650
  N      -0.273883      2.133771     -0.329176
  C      -1.331124      1.142578     -0.531883
  C      -0.773554     -0.117920      0.168377
  C      -1.328601     -0.225141      1.589146
  C      -1.045104     -1.392857     -0.650637
  N       0.054613     -1.413445     -1.613990
  C       1.240546     -1.123356     -0.809462
  H       1.373515     -0.783617      1.991435
  H       2.627304      0.183716      1.203821
  H       1.249769      0.989613      1.975092
  H       1.838091      1.963232     -0.378977
  H       1.007758      1.217039     -1.776380
  H      -0.410962      2.963649     -0.897029
  H      -2.276097      1.479086     -0.089817
  H      -1.496083      0.922927     -1.600656
  H      -1.163470      0.705396      2.141686
  H      -0.871347     -1.048086      2.148561
  H      -2.409455     -0.409479      1.552639
  H      -2.016760     -1.365924     -1.158450
  H      -1.032892     -2.270418      0.022252
  H       0.124195     -2.293441     -2.113095
  H       1.524488     -1.968914     -0.155616
  H       2.100657     -0.879929     -1.444838
26
Coordinates from ORCA-job file E -424.241204316896
  C       1.549572      0.106072      1.388374
  C       0.795747      0.067130      0.058403
  C       0.945070      1.415466     -0.683776
  N      -0.278808      2.132760     -0.324757
  C      -1.329107      1.137586     -0.540450
  C      -0.773264     -0.118090      0.168361
  C      -1.329336     -0.216546      1.589286
  C      -1.045378     -1.396566     -0.643608
  N       0.048989     -1.417008     -1.612649
  C       1.239610     -1.119935     -0.817069
  H       1.372010     -0.793041      1.987789
  H       2.628792      0.172457      1.202648
  H       1.254235      0.980631      1.977027
  H       1.834754      1.970355     -0.364177
  H       1.014268      1.228601     -1.769265
  H      -0.416496      2.965257     -0.888664
  H      -2.280807      1.470231     -0.110124
  H      -1.479768      0.915994     -1.611047
  H      -1.166039      0.717567      2.136337
  H      -0.871309     -1.035425      2.153929
  H      -2.409847     -0.402951      1.552948
  H      -2.019829     -1.374002     -1.146382
  H      -1.027038     -2.271784      0.032183
  H       0.117646     -2.297576     -2.110731
  H       1.532316     -1.964880     -0.166391
  H       2.094117     -0.872302     -1.458294
26
Coordinates from ORCA-job file E -424.241209247342
  C       1.548587      0.112608      1.388834
  C       0.795293      0.067211      0.058798
  C       0.944076      1.411062     -0.690322
  N      -0.274548      2.133568     -0.324927
  C      -1.329985      1.141870     -0.533778
  C      -0.773460     -0.117946      0.168079
  C      -1.328885     -0.223510      1.588878
  C      -1.045794     -1.393385     -0.649541
  N       0.053944     -1.416890     -1.612872
  C       1.240891     -1.122374     -0.811200
  H       1.372462     -0.785043      1.990837
  H       2.627726      0.180227      1.203079
  H       1.251663      0.988456      1.974785
  H       1.837380      1.964333     -0.378058
  H       1.005751      1.220029     -1.775601
  H      -0.411699      2.964821     -0.890823
  H      -2.277126      1.477272     -0.095559
  H      -1.490197      0.923217     -1.603616
  H      -1.165456      0.708244      2.139932
  H      -0.870446     -1.044796      2.149764
  H      -2.409414     -0.409844      1.552287
  H      -2.017329     -1.365858     -1.157672
  H      -1.034979     -2.270429      0.024018
  H       0.123856     -2.298823     -2.108363
  H       1.529005     -1.967166     -0.158231
  H       2.098783     -0.876853     -1.448829
