26
Coordinates from ORCA-job file
  C   1.54858687614953      0.11260795059499      1.38883424974165
  C   0.79529298890443      0.06721106647214      0.05879849434923
  C   0.94407634759927      1.41106156786586     -0.69032198089676
  N   -0.27454827586419      2.13356777142786     -0.32492683958061
  C   -1.32998493095101      1.14186996399432     -0.53377819053331
  C   -0.77345994537956     -0.11794551046790      0.16807858138263
  C   -1.32888535282016     -0.22351036850285      1.58887794194925
  C   -1.04579356927898     -1.39338541915736     -0.64954072380384
  N   0.05394374431864     -1.41688987567997     -1.61287246484370
  C   1.24089075489765     -1.12237432126066     -0.81120018543799
  H   1.37246152559294     -0.78504296454645      1.99083746958945
  H   2.62772635542927      0.18022713804950      1.20307909313186
  H   1.25166313295838      0.98845620482848      1.97478470326647
  H   1.83737961561784      1.96433272330485     -0.37805813073658
  H   1.00575114948135      1.22002929086940     -1.77560121771439
  H   -0.41169878491399      2.96482098522699     -0.89082255440119
  H   -2.27712552498342      1.47727153420086     -0.09555900966213
  H   -1.49019704714707      0.92321734834684     -1.60361625902838
  H   -1.16545561954663      0.70824365626975      2.13993210461378
  H   -0.87044625575195     -1.04479644317311      2.14976408899226
  H   -2.40941424588926     -0.40984383036428      1.55228700296211
  H   -2.01732853839418     -1.36585842523778     -1.15767165170714
  H   -1.03497860836749     -2.27042887230116      0.02401830435758
  H   0.12385643493559     -2.29882275519142     -2.10836311296297
  H   1.52900524652173     -1.96716556755340     -0.15823068090985
  H   2.09878252688128     -0.87685284801546     -1.44882903211743
