21
Coordinates from ORCA-job file
  C   -2.36053558626807     -0.10453123941921      0.22177591067211
  C   -1.49972164603193     -1.09577902284458     -0.58674174608515
  O   -0.23276316398007     -1.26127783287962      0.03718798193354
  C   0.55294291873813     -0.08125854872975     -0.00401501827190
  C   -0.33176442144289      1.17774438704205      0.05237829938161
  N   -1.54420123049714      0.95418565794753      0.83128141443948
  C   1.69018195014326     -0.11260550019677      1.03383396859073
  N   2.60108797855341      0.43111562408903     -0.00111860050632
  C   1.67578771627506     -0.01481527309905     -1.07047087412302
  H   -2.89578012236894     -0.63051197180987      1.01905920470213
  H   -3.11509695408214      0.34563462479179     -0.43879279918000
  H   -1.36530073540005     -0.74972787296763     -1.62303789700197
  H   -1.96054763070356     -2.08682639514683     -0.62423439290071
  H   -0.62858100586123      1.47978917390112     -0.96080936556904
  H   0.24472559019139      2.00760499112973      0.47263408482663
  H   -1.28751071775315      0.68213007954270      1.77425278649014
  H   1.58276177388762      0.51325506213626      1.92860201709361
  H   1.90349876588317     -1.14969857932293      1.32599756139915
  H   3.52482702168702      0.01325172470512     -0.02517613215749
  H   1.88805721646861     -1.01716970378486     -1.46756929031134
  H   1.55793228256150      0.69939061491577     -1.89483711342219
