21
Coordinates from ORCA-job file E -420.727615716048
  C      -2.322500     -0.174500      0.130500
  C      -1.354000     -1.160900     -0.557100
  O      -0.125800     -1.229900      0.136400
  C       0.548400      0.018500      0.062100
  C      -0.373500      1.267100      0.159200
  N      -1.621200      0.910400      0.840300
  C       1.753800      0.039200      0.995200
  N       2.711800      0.070300     -0.111100
  C       1.588700      0.062900     -1.049900
  H      -2.961400     -0.729900      0.852600
  H      -2.998000      0.267200     -0.633200
  H      -1.186900     -0.864300     -1.618400
  H      -1.812900     -2.171900     -0.574200
  H      -0.616600      1.640200     -0.860600
  H       0.116000      2.106900      0.697300
  H      -1.382500      0.579600      1.805400
  H       1.843300      0.958200      1.613900
  H       1.850200     -0.886600      1.608700
  H       3.191200     -0.860200     -0.161000
  H       1.581400     -0.846600     -1.694000
  H       1.570500      1.004200     -1.641900
21
Coordinates from ORCA-job file E -420.737100978792
  C      -2.339983     -0.166541      0.135094
  C      -1.367183     -1.151595     -0.550810
  O      -0.136418     -1.203621      0.154019
  C       0.565390      0.029319      0.062891
  C      -0.389131      1.238393      0.151270
  N      -1.633830      0.908113      0.838576
  C       1.771717      0.018727      1.023236
  N       2.734852      0.057522     -0.110233
  C       1.607964      0.074464     -1.081272
  H      -2.969467     -0.696206      0.858072
  H      -3.008540      0.270137     -0.620749
  H      -1.186612     -0.862955     -1.599392
  H      -1.781237     -2.164167     -0.558756
  H      -0.641067      1.596060     -0.857267
  H       0.103850      2.067496      0.669414
  H      -1.410004      0.597485      1.777073
  H       1.853923      0.908020      1.659175
  H       1.835472     -0.888919      1.632730
  H       3.224143     -0.827253     -0.168989
  H       1.575892     -0.801403     -1.738842
  H       1.590270      0.996824     -1.675041
21
Coordinates from ORCA-job file E -420.738021602223
  C      -2.346345     -0.163352      0.147804
  C      -1.376994     -1.139639     -0.554880
  O      -0.147088     -1.191132      0.154826
  C       0.571081      0.034951      0.055061
  C      -0.394871      1.233868      0.134097
  N      -1.627070      0.909290      0.842868
  C       1.763882      0.001095      1.031743
  N       2.734227      0.084365     -0.096713
  C       1.620336      0.067704     -1.086300
  H      -2.961869     -0.694409      0.880730
  H      -3.026227      0.276887     -0.594626
  H      -1.193266     -0.836617     -1.597631
  H      -1.773882     -2.158344     -0.569015
  H      -0.664326      1.569432     -0.876637
  H       0.104078      2.076778      0.623389
  H      -1.397937      0.603541      1.783200
  H       1.835694      0.860214      1.708626
  H       1.805277     -0.927019      1.611511
  H       3.289424     -0.761750     -0.159682
  H       1.583293     -0.817717     -1.731230
  H       1.602583      0.971752     -1.706942
21
Coordinates from ORCA-job file E -420.738415918053
  C      -2.349865     -0.157016      0.156702
  C      -1.388181     -1.131660     -0.558670
  O      -0.156809     -1.191954      0.149085
  C       0.571570      0.029847      0.051823
  C      -0.392919      1.230738      0.123112
  N      -1.620648      0.915343      0.843533
  C       1.757335     -0.015086      1.036770
  N       2.726998      0.123464     -0.086089
  C       1.624846      0.057144     -1.085688
  H      -2.954923     -0.689524      0.897321
  H      -3.039542      0.284607     -0.575947
  H      -1.205321     -0.819541     -1.598889
  H      -1.784924     -2.150501     -0.579902
  H      -0.669882      1.551254     -0.890468
  H       0.110392      2.081479      0.594427
  H      -1.387216      0.613571      1.783597
  H       1.814080      0.814280      1.751715
  H       1.798249     -0.966714      1.578212
  H       3.350978     -0.672258     -0.151121
  H       1.599563     -0.848178     -1.703952
  H       1.596218      0.940606     -1.735370
21
Coordinates from ORCA-job file E -420.738792490400
  C      -2.352988     -0.149381      0.164808
  C      -1.401462     -1.125435     -0.561979
  O      -0.167152     -1.197380      0.140074
  C       0.569975      0.019791      0.047659
  C      -0.388015      1.226082      0.113448
  N      -1.613171      0.921836      0.843092
  C       1.749888     -0.030886      1.039773
  N       2.715262      0.164021     -0.075333
  C       1.629087      0.045822     -1.084242
  H      -2.949266     -0.681959      0.912576
  H      -3.051146      0.293786     -0.559025
  H      -1.221774     -0.807013     -1.600895
  H      -1.803900     -2.142014     -0.588434
  H      -0.669322      1.536421     -0.902094
  H       0.121373      2.080420      0.571643
  H      -1.375466      0.623197      1.783065
  H       1.788032      0.769930      1.788378
  H       1.800651     -1.003598      1.542188
  H       3.407721     -0.572954     -0.140125
  H       1.625097     -0.879391     -1.673330
  H       1.586577      0.908605     -1.761048
21
Coordinates from ORCA-job file E -420.739182533022
  C      -2.355587     -0.140712      0.173614
  C      -1.417651     -1.120615     -0.565317
  O      -0.178440     -1.207436      0.126459
  C       0.566758      0.004432      0.041323
  C      -0.380216      1.219097      0.103274
  N      -1.603168      0.928237      0.842188
  C       1.740564     -0.046876      1.041145
  N       2.699495      0.206362     -0.063080
  C       1.634738      0.034370     -1.082299
  H      -2.943730     -0.671944      0.928922
  H      -3.061853      0.304687     -0.541166
  H      -1.244117     -0.797700     -1.603958
  H      -1.830416     -2.133034     -0.594955
  H      -0.664644      1.523052     -0.913338
  H       0.138295      2.073388      0.551189
  H      -1.360515      0.632160      1.781724
  H       1.755701      0.726560      1.819377
  H       1.810241     -1.037643      1.505428
  H       3.456851     -0.464335     -0.124628
  H       1.661299     -0.908930     -1.641923
  H       1.576397      0.876779     -1.783780
21
Coordinates from ORCA-job file E -420.739580757942
  C      -2.357580     -0.131229      0.183028
  C      -1.436116     -1.116437     -0.568772
  O      -0.190882     -1.220467      0.109402
  C       0.562866     -0.015187      0.032885
  C      -0.369691      1.209994      0.092506
  N      -1.590635      0.934377      0.840756
  C       1.729593     -0.063219      1.041103
  N       2.680499      0.253035     -0.049473
  C       1.641937      0.022799     -1.080324
  H      -2.937796     -0.659775      0.946427
  H      -3.071799      0.316709     -0.522335
  H      -1.270699     -0.790505     -1.607755
  H      -1.861730     -2.123490     -0.599455
  H      -0.656677      1.511426     -0.924109
  H       0.161049      2.060597      0.532875
  H      -1.343083      0.640361      1.779755
  H       1.717406      0.682113      1.846614
  H       1.826299     -1.068809      1.468169
  H       3.494114     -0.348836     -0.105277
  H       1.706705     -0.936509     -1.609546
  H       1.566220      0.842952     -1.806274
21
Coordinates from ORCA-job file E -420.739982725024
  C      -2.359096     -0.121520      0.191937
  C      -1.454347     -1.111660     -0.572486
  O      -0.203862     -1.233014      0.092695
  C       0.559578     -0.035348      0.024028
  C      -0.358306      1.200417      0.082637
  N      -1.577391      0.939869      0.839423
  C       1.718897     -0.078960      1.040016
  N       2.658920      0.304202     -0.036568
  C       1.649382      0.010172     -1.078655
  H      -2.931811     -0.647152      0.962980
  H      -3.080560      0.329318     -0.504123
  H      -1.296019     -0.782831     -1.611519
  H      -1.891811     -2.113534     -0.603735
  H      -0.647774      1.502121     -0.933086
  H       0.185849      2.045169      0.517602
  H      -1.326374      0.647641      1.778105
  H       1.678691      0.634961      1.872600
  H       1.846961     -1.096766      1.429345
  H       3.517353     -0.232378     -0.085216
  H       1.754917     -0.964047     -1.573784
  H       1.556803      0.803239     -1.831996
21
Coordinates from ORCA-job file E -420.740326971040
  C      -2.360017     -0.110736      0.198551
  C      -1.474377     -1.108901     -0.576378
  O      -0.218366     -1.251009      0.073505
  C       0.553643     -0.062339      0.013895
  C      -0.342433      1.188131      0.076674
  N      -1.562449      0.943834      0.837581
  C       1.707339     -0.090061      1.035316
  N       2.631880      0.362518     -0.026229
  C       1.655476     -0.002653     -1.076882
  H      -2.928864     -0.631083      0.975957
  H      -3.085661      0.344254     -0.490289
  H      -1.323613     -0.779908     -1.616200
  H      -1.928200     -2.103316     -0.605343
  H      -0.629933      1.501171     -0.935997
  H       0.220312      2.017943      0.516073
  H      -1.311301      0.651564      1.776337
  H       1.632559      0.595430      1.888815
  H       1.884710     -1.113171      1.391630
  H       3.521273     -0.122561     -0.066184
  H       1.816839     -0.988723     -1.532707
  H       1.541180      0.759516     -1.857924
21
Coordinates from ORCA-job file E -420.740515497328
  C      -2.361261     -0.104748      0.210820
  C      -1.487052     -1.099317     -0.580760
  O      -0.226945     -1.250514      0.060489
  C       0.557241     -0.067432      0.005571
  C      -0.339922      1.183719      0.062808
  N      -1.552081      0.948407      0.838501
  C       1.700100     -0.107263      1.036388
  N       2.613091      0.408947     -0.012394
  C       1.667358     -0.013619     -1.074713
  H      -2.917171     -0.627373      0.995958
  H      -3.097645      0.352668     -0.464867
  H      -1.340889     -0.760950     -1.618170
  H      -1.939054     -2.094573     -0.615400
  H      -0.638431      1.484120     -0.950392
  H       0.227525      2.019541      0.484376
  H      -1.295772      0.662040      1.777420
  H       1.612400      0.533278      1.922836
  H       1.887516     -1.143898      1.346467
  H       3.529544     -0.022829     -0.044222
  H       1.847225     -1.013873     -1.492056
  H       1.554222      0.713571     -1.888459
21
Coordinates from ORCA-job file E -420.740533039314
  C      -2.359440     -0.096607      0.226096
  C      -1.510564     -1.094142     -0.587866
  O      -0.241374     -1.271522      0.027555
  C       0.548728     -0.096416     -0.010566
  C      -0.323741      1.169157      0.047289
  N      -1.531339      0.952813      0.836041
  C       1.682531     -0.119919      1.031297
  N       2.579674      0.451464      0.005149
  C       1.680301     -0.023380     -1.069413
  H      -2.898635     -0.618652      1.023341
  H      -3.110738      0.362207     -0.432149
  H      -1.380046     -0.748353     -1.624646
  H      -1.982123     -2.080067     -0.623666
  H      -0.626574      1.471713     -0.963936
  H       0.263280      1.994542      0.461845
  H      -1.267691      0.669243      1.773935
  H       1.559854      0.494510      1.932093
  H       1.917914     -1.155905      1.311556
  H       3.526367      0.087640     -0.011034
  H       1.916721     -1.027241     -1.449362
  H       1.556896      0.678814     -1.903357
21
Coordinates from ORCA-job file E -420.740595937382
  C      -2.362376     -0.101650      0.210784
  C      -1.494549     -1.099615     -0.582868
  O      -0.232774     -1.260166      0.053123
  C       0.552614     -0.080570      0.004272
  C      -0.331971      1.179475      0.064258
  N      -1.549880      0.951814      0.833541
  C       1.698619     -0.108522      1.032967
  N       2.602509      0.429107     -0.011570
  C       1.666381     -0.016276     -1.071961
  H      -2.914633     -0.622828      0.999503
  H      -3.102538      0.353949     -0.462195
  H      -1.350787     -0.761464     -1.620539
  H      -1.955085     -2.090890     -0.616588
  H      -0.622577      1.488715     -0.948584
  H       0.242511      2.005688      0.494173
  H      -1.298064      0.670311      1.775125
  H       1.597877      0.522712      1.924685
  H       1.914123     -1.143957      1.329685
  H       3.523084      0.004717     -0.042019
  H       1.875532     -1.018739     -1.470624
  H       1.541984      0.698091     -1.894967
21
Coordinates from ORCA-job file E -420.740604746580
  C      -2.359149     -0.105541      0.227111
  C      -1.501294     -1.094867     -0.587147
  O      -0.231051     -1.260025      0.030218
  C       0.554074     -0.078896     -0.009118
  C      -0.333857      1.177447      0.046549
  N      -1.540269      0.952571      0.834376
  C       1.685464     -0.113059      1.034594
  N       2.603427      0.428699      0.003871
  C       1.681434     -0.012149     -1.070953
  H      -2.892396     -0.632224      1.025306
  H      -3.115405      0.346200     -0.430376
  H      -1.371813     -0.747084     -1.623534
  H      -1.960014     -2.086991     -0.624340
  H      -0.638318      1.474590     -0.965865
  H       0.242765      2.011002      0.459274
  H      -1.278220      0.678450      1.775314
  H       1.576089      0.513847      1.928370
  H       1.893202     -1.150621      1.328540
  H       3.525907      0.008119     -0.016773
  H       1.890205     -1.014061     -1.471013
  H       1.569217      0.704494     -1.894204
21
Coordinates from ORCA-job file E -420.740609194267
  C      -2.361024     -0.103343      0.219655
  C      -1.498862     -1.095940     -0.585999
  O      -0.233283     -1.260561      0.041051
  C       0.553225     -0.080914     -0.002154
  C      -0.331873      1.178004      0.054502
  N      -1.544974      0.953777      0.832192
  C       1.692024     -0.112904      1.033816
  N       2.599895      0.432853     -0.002962
  C       1.674017     -0.016307     -1.070669
  H      -2.899984     -0.628330      1.015058
  H      -3.112393      0.348523     -0.443362
  H      -1.362008     -0.751219     -1.622427
  H      -1.959422     -2.087120     -0.623128
  H      -0.628189      1.480379     -0.958721
  H       0.244060      2.007940      0.475491
  H      -1.288819      0.679135      1.774581
  H       1.586320      0.511206      1.930013
  H       1.905472     -1.150485      1.324163
  H       3.525288      0.018855     -0.028179
  H       1.885472     -1.019491     -1.466061
  H       1.555057      0.695841     -1.896660
21
Coordinates from ORCA-job file E -420.740610756613
  C      -2.360536     -0.104531      0.221776
  C      -1.499722     -1.095779     -0.586742
  O      -0.232763     -1.261278      0.037188
  C       0.552943     -0.081259     -0.004015
  C      -0.331764      1.177744      0.052378
  N      -1.544201      0.954186      0.831281
  C       1.690182     -0.112606      1.033834
  N       2.601088      0.431116     -0.001119
  C       1.675788     -0.014815     -1.070471
  H      -2.895780     -0.630512      1.019059
  H      -3.115097      0.345635     -0.438793
  H      -1.365301     -0.749728     -1.623038
  H      -1.960548     -2.086826     -0.624234
  H      -0.628581      1.479789     -0.960809
  H       0.244726      2.007605      0.472634
  H      -1.287511      0.682130      1.774253
  H       1.582762      0.513255      1.928602
  H       1.903499     -1.149699      1.325998
  H       3.524827      0.013252     -0.025176
  H       1.888057     -1.017170     -1.467569
  H       1.557932      0.699391     -1.894837
