26
Coordinates from ORCA-job file E -424.223585271883
  C      -2.368400     -0.918600     -0.011400
  C      -2.446000      0.562300      0.353700
  C      -1.103700      1.183500     -0.025200
  C      -0.129800      0.011500     -0.238100
  C      -1.040900     -1.118800     -0.729900
  C       0.960300      0.367300     -1.297800
  N       2.181000     -0.414700     -1.073100
  C       2.795400     -0.088700      0.226500
  C       1.758200      0.268000      1.309200
  N       0.489300     -0.416500      1.043500
  H      -2.389000     -1.536200      0.913700
  H      -3.219900     -1.217800     -0.660900
  H      -2.626200      0.676400      1.445200
  H      -3.273600      1.060200     -0.197700
  H      -1.232700      1.754700     -0.972200
  H      -0.747900      1.886200      0.759200
  H      -1.223100     -1.040400     -1.824800
  H      -0.612100     -2.122500     -0.515400
  H       1.215000      1.450100     -1.240500
  H       0.599200      0.194200     -2.334200
  H       1.931900     -1.432200     -1.085800
  H       3.400600     -0.956500      0.570700
  H       3.494300      0.764900      0.094300
  H       1.599900      1.369400      1.336600
  H       2.145600     -0.039800      2.304600
  H      -0.157300     -0.246100      1.849700
26
Coordinates from ORCA-job file E -424.231870402680
  C      -2.384624     -0.933977      0.010271
  C      -2.460153      0.571918      0.373608
  C      -1.107696      1.188886     -0.048570
  C      -0.132589      0.009042     -0.254069
  C      -1.057705     -1.119193     -0.748324
  C       0.980713      0.356525     -1.268128
  N       2.199880     -0.417271     -1.063235
  C       2.799130     -0.087492      0.233472
  C       1.745466      0.281190      1.300914
  N       0.499339     -0.428337      1.013109
  H      -2.393623     -1.549529      0.917318
  H      -3.237807     -1.243995     -0.601709
  H      -2.632027      0.700813      1.448492
  H      -3.288929      1.065117     -0.144312
  H      -1.220827      1.742722     -0.990139
  H      -0.724740      1.893413      0.699834
  H      -1.228730     -1.019153     -1.828387
  H      -0.612683     -2.101409     -0.560609
  H       1.244004      1.420866     -1.194554
  H       0.612009      0.194798     -2.287178
  H       1.962063     -1.401744     -1.077487
  H       3.391025     -0.947099      0.565598
  H       3.493092      0.754743      0.104328
  H       1.600814      1.377089      1.326553
  H       2.101742     -0.018860      2.292615
  H      -0.147042     -0.289163      1.780491
26
Coordinates from ORCA-job file E -424.232959941931
  C      -2.366343     -0.938298      0.038919
  C      -2.439632      0.572070      0.401041
  C      -1.104636      1.192046     -0.075167
  C      -0.135158      0.008663     -0.279306
  C      -1.072270     -1.105522     -0.779221
  C       0.997782      0.351516     -1.272375
  N       2.214160     -0.421673     -1.050369
  C       2.792262     -0.087231      0.256787
  C       1.714954      0.289444      1.298730
  N       0.490210     -0.443439      0.985633
  H      -2.331795     -1.554476      0.944736
  H      -3.242823     -1.263316     -0.530273
  H      -2.581305      0.708639      1.479194
  H      -3.289508      1.060230     -0.086045
  H      -1.239619      1.721236     -1.027801
  H      -0.698505      1.917902      0.639202
  H      -1.274821     -0.964067     -1.848992
  H      -0.616074     -2.090784     -0.642987
  H       1.262762      1.414164     -1.188979
  H       0.641177      0.196252     -2.296754
  H       1.976067     -1.408209     -1.061419
  H       3.372647     -0.949110      0.601557
  H       3.491645      0.750802      0.134472
  H       1.563580      1.384022      1.310202
  H       2.048544      0.002903      2.301754
  H      -0.173201     -0.343865      1.747364
26
Coordinates from ORCA-job file E -424.233503077202
  C      -2.345848     -0.939896      0.063307
  C      -2.417063      0.572458      0.424644
  C      -1.100475      1.195202     -0.098340
  C      -0.135953      0.008715     -0.302510
  C      -1.085239     -1.090679     -0.808101
  C       1.012620      0.345567     -1.281606
  N       2.226951     -0.424882     -1.036113
  C       2.783825     -0.085490      0.280300
  C       1.685881      0.292595      1.300560
  N       0.477604     -0.454942      0.962254
  H      -2.259738     -1.553094      0.968114
  H      -3.245037     -1.279977     -0.460356
  H      -2.522313      0.712869      1.506687
  H      -3.287396      1.054733     -0.031926
  H      -1.263612      1.697311     -1.061416
  H      -0.677953      1.942111      0.584388
  H      -1.325748     -0.905285     -1.863490
  H      -0.626395     -2.081230     -0.727174
  H       1.275432      1.408837     -1.198219
  H       0.673322      0.185864     -2.311429
  H       1.989150     -1.411146     -1.043313
  H       3.354309     -0.948676      0.638554
  H       3.487389      0.750404      0.167179
  H       1.525177      1.385799      1.298163
  H       1.999513      0.018574      2.313599
  H      -0.198305     -0.395842      1.716144
26
Coordinates from ORCA-job file E -424.233620905945
  C      -2.332275     -0.939133      0.080053
  C      -2.402556      0.574598      0.437403
  C      -1.095415      1.196749     -0.110308
  C      -0.134922      0.006827     -0.316678
  C      -1.097020     -1.078156     -0.827702
  C       1.022526      0.337642     -1.289252
  N       2.238464     -0.424451     -1.024761
  C       2.779327     -0.080304      0.297277
  C       1.666398      0.291580      1.303169
  N       0.470693     -0.466252      0.946300
  H      -2.204245     -1.545489      0.984563
  H      -3.245789     -1.293568     -0.407918
  H      -2.486009      0.716962      1.520991
  H      -3.282765      1.053568     -0.003518
  H      -1.277639      1.679396     -1.079850
  H      -0.666071      1.957240      0.552570
  H      -1.367139     -0.854554     -1.868549
  H      -0.643805     -2.074100     -0.793286
  H       1.278643      1.403358     -1.216281
  H       0.696067      0.163491     -2.320865
  H       2.003753     -1.411849     -1.029567
  H       3.347332     -0.941797      0.663514
  H       3.481588      0.757750      0.192249
  H       1.495078      1.383056      1.292237
  H       1.967430      0.025514      2.322068
  H      -0.211548     -0.438179      1.696041
26
Coordinates from ORCA-job file E -424.233626827439
  C      -2.338706     -0.936770      0.074356
  C      -2.402271      0.575287      0.439048
  C      -1.094254      1.195200     -0.107898
  C      -0.134246      0.004571     -0.314299
  C      -1.097410     -1.080471     -0.825022
  C       1.021561      0.335350     -1.289530
  N       2.239851     -0.422803     -1.024674
  C       2.781128     -0.076461      0.296455
  C       1.668368      0.292459      1.303468
  N       0.473706     -0.467473      0.947694
  H      -2.219945     -1.546919      0.977477
  H      -3.251222     -1.284378     -0.420594
  H      -2.482807      0.712804      1.523568
  H      -3.281287      1.059579      0.001611
  H      -1.276199      1.677164     -1.077880
  H      -0.665485      1.956223      0.554743
  H      -1.362510     -0.859015     -1.867561
  H      -0.646820     -2.077481     -0.786764
  H       1.274726      1.402106     -1.221094
  H       0.694418      0.156207     -2.320097
  H       2.008251     -1.410745     -1.029206
  H       3.352348     -0.936042      0.662330
  H       3.480623      0.763832      0.190565
  H       1.494388      1.383502      1.292565
  H       1.971003      0.027084      2.322109
  H      -0.207106     -0.442907      1.698530
26
Coordinates from ORCA-job file E -424.233627576008
  C      -2.339216     -0.935410      0.075396
  C      -2.403394      0.577178      0.436517
  C      -1.092323      1.195105     -0.105561
  C      -0.133861      0.003087     -0.313521
  C      -1.098864     -1.080120     -0.824592
  C       1.020882      0.332901     -1.290677
  N       2.240883     -0.421961     -1.024538
  C       2.781705     -0.072894      0.295805
  C       1.668443      0.290178      1.304512
  N       0.474821     -0.470781      0.947215
  H      -2.220025     -1.543934      0.979660
  H      -3.251736     -1.283881     -0.418887
  H      -2.488125      0.715969      1.520468
  H      -3.279984      1.061847     -0.005508
  H      -1.271317      1.680159     -1.074502
  H      -0.663840      1.953626      0.560140
  H      -1.364258     -0.857601     -1.866884
  H      -0.650418     -2.078140     -0.787322
  H       1.271890      1.400456     -1.226693
  H       0.693391      0.148888     -2.320291
  H       2.012157     -1.410484     -1.028371
  H       3.358178     -0.929345      0.660821
  H       3.476556      0.771140      0.189094
  H       1.491833      1.380805      1.296810
  H       1.972204      0.022656      2.322266
  H      -0.205483     -0.449545      1.698542
26
Coordinates from ORCA-job file E -424.233624908077
  C      -2.340481     -0.933884      0.074761
  C      -2.400994      0.578158      0.438887
  C      -1.090571      1.194619     -0.105986
  C      -0.133716      0.001549     -0.314423
  C      -1.100312     -1.080109     -0.825429
  C       1.021157      0.330218     -1.292009
  N       2.242260     -0.421892     -1.023394
  C       2.781437     -0.069167      0.296507
  C       1.666561      0.289579      1.305213
  N       0.474927     -0.473410      0.945736
  H      -2.223185     -1.544269      0.977997
  H      -3.253720     -1.279208     -0.420426
  H      -2.482631      0.715440      1.523303
  H      -3.277808      1.065093     -0.000104
  H      -1.270432      1.679212     -1.075045
  H      -0.660493      1.953191      0.558583
  H      -1.365467     -0.857000     -1.867638
  H      -0.653255     -2.078765     -0.788447
  H       1.270549      1.398337     -1.231008
  H       0.694410      0.142649     -2.321219
  H       2.015683     -1.410955     -1.025567
  H       3.362349     -0.922417      0.661975
  H       3.472079      0.778179      0.188817
  H       1.487412      1.379795      1.299376
  H       1.970235      0.020921      2.322685
  H      -0.205892     -0.455966      1.696756
