26
Coordinates from ORCA-job file
  C   -2.34048132887134     -0.93388394355872      0.07476105265993
  C   -2.40099365736078      0.57815833328309      0.43888664546477
  C   -1.09057133015029      1.19461887457820     -0.10598574955259
  C   -0.13371624080181      0.00154873827882     -0.31442340375374
  C   -1.10031230330849     -1.08010901194501     -0.82542900452499
  C   1.02115743445417      0.33021832821478     -1.29200895509050
  N   2.24225982708394     -0.42189222629727     -1.02339444917323
  C   2.78143718171173     -0.06916726089721      0.29650712390780
  C   1.66656130091137      0.28957916523266      1.30521338785113
  N   0.47492692015194     -0.47341042101130      0.94573565882920
  H   -2.22318477112153     -1.54426868147723      0.97799683724429
  H   -3.25372010116586     -1.27920825261377     -0.42042586076855
  H   -2.48263145918932      0.71544048569070      1.52330320133636
  H   -3.27780826724111      1.06509349587656     -0.00010428852520
  H   -1.27043228997362      1.67921218520816     -1.07504519156573
  H   -0.66049286362940      1.95319132828188      0.55858314945356
  H   -1.36546688629255     -0.85700036863212     -1.86763786264494
  H   -0.65325533374554     -2.07876455370477     -0.78844729454999
  H   1.27054888932437      1.39833703487605     -1.23100781796879
  H   0.69441026437715      0.14264888950813     -2.32121949378772
  H   2.01568290974015     -1.41095471273390     -1.02556689833760
  H   3.36234887495436     -0.92241655683539      0.66197497205353
  H   3.47207879966006      0.77817926094760      0.18881660927136
  H   1.48741198453634      1.37979546580031      1.29937607915645
  H   1.97023475629052      0.02092075521301      2.32268538205179
  H   -0.20589231034444     -0.45596635128328      1.69675617096340
