16
Coordinates from ORCA-job file E -271.916415262241
  C      -0.179400      1.184800     -0.346300
  C       1.206000      0.660600      0.037500
  C       1.256400     -0.863000     -0.134300
  O       0.253700     -1.492700      0.642700
  C      -1.029000     -1.119100      0.173100
  C      -1.268200      0.383300      0.370200
  H      -0.317300      1.095000     -1.446500
  H      -0.263100      2.258800     -0.073700
  H       1.422000      0.919600      1.097200
  H       1.977700      1.137000     -0.604600
  H       1.165900     -1.141100     -1.209400
  H       2.247400     -1.224700      0.212000
  H      -1.163900     -1.402300     -0.896100
  H      -1.792000     -1.677400      0.755300
  H      -1.251100      0.620000      1.456700
  H      -2.265100      0.661400     -0.034000
16
Coordinates from ORCA-job file E -271.919002043133
  C      -0.181052      1.189599     -0.354601
  C       1.207315      0.665947      0.036782
  C       1.268449     -0.851871     -0.132697
  O       0.250940     -1.502559      0.614735
  C      -1.042402     -1.110790      0.177751
  C      -1.270748      0.388275      0.370238
  H      -0.316176      1.090210     -1.441086
  H      -0.268489      2.255627     -0.116020
  H       1.416613      0.914024      1.085001
  H       1.985937      1.134371     -0.577872
  H       1.166334     -1.116612     -1.200156
  H       2.219986     -1.252832      0.226141
  H      -1.167093     -1.377558     -0.886791
  H      -1.756513     -1.698720      0.760291
  H      -1.247604      0.615131      1.443595
  H      -2.265496      0.657956     -0.005511
16
Coordinates from ORCA-job file E -271.919068278812
  C      -0.181470      1.186562     -0.359720
  C       1.205375      0.667756      0.041083
  C       1.270833     -0.849163     -0.135350
  O       0.249631     -1.507493      0.602515
  C      -1.046050     -1.108657      0.175556
  C      -1.268164      0.390573      0.374159
  H      -0.314441      1.068380     -1.445060
  H      -0.272158      2.257105     -0.141708
  H       1.404193      0.910292      1.093068
  H       1.990299      1.141464     -0.561944
  H       1.173086     -1.108054     -1.204749
  H       2.218882     -1.255567      0.229240
  H      -1.176120     -1.370305     -0.889701
  H      -1.754412     -1.701220      0.762070
  H      -1.232392      0.613976      1.448340
  H      -2.267093      0.664550      0.012000
16
Coordinates from ORCA-job file E -271.919074003692
  C      -0.181696      1.185058     -0.362513
  C       1.204226      0.668330      0.043293
  C       1.271729     -0.848192     -0.136900
  O       0.249022     -1.509866      0.596553
  C      -1.047542     -1.107930      0.174206
  C      -1.266634      0.391436      0.376063
  H      -0.313521      1.057282     -1.447044
  H      -0.273814      2.257492     -0.153929
  H       1.396320      0.907773      1.097348
  H       1.992167      1.144948     -0.553655
  H       1.178097     -1.104192     -1.207386
  H       2.218709     -1.254846      0.230476
  H      -1.182223     -1.367606     -0.890990
  H      -1.754224     -1.700485      0.762944
  H      -1.223109      0.613131      1.450434
  H      -2.267507      0.667868      0.020900
16
Coordinates from ORCA-job file E -271.919073976430
  C      -0.181712      1.185084     -0.362645
  C       1.204178      0.668280      0.043263
  C       1.271768     -0.848229     -0.136997
  O       0.248997     -1.510019      0.596182
  C      -1.047589     -1.107983      0.174139
  C      -1.266587      0.391395      0.376004
  H      -0.313523      1.057276     -1.447164
  H      -0.273816      2.257502     -0.154003
  H       1.395854      0.907564      1.097424
  H       1.992277      1.144987     -0.553390
  H       1.178706     -1.104191     -1.207521
  H       2.218786     -1.254482      0.230694
  H      -1.182850     -1.367785     -0.890932
  H      -1.754304     -1.700124      0.763233
  H      -1.222641      0.613039      1.450363
  H      -2.267545      0.667885      0.021149
