16
Coordinates from ORCA-job file
  C   -0.18171225321190      1.18508417300124     -0.36264484301789
  C   1.20417838626552      0.66828009996265      0.04326340938100
  C   1.27176786572009     -0.84822881353823     -0.13699652129436
  O   0.24899704997651     -1.51001896131769      0.59618237490914
  C   -1.04758851630637     -1.10798252728517      0.17413905401020
  C   -1.26658671253134      0.39139487211531      0.37600412298990
  H   -0.31352347218890      1.05727595255071     -1.44716376796857
  H   -0.27381590055938      2.25750205091635     -0.15400336877292
  H   1.39585445904006      0.90756378269577      1.09742390623261
  H   1.99227739252717      1.14498737888183     -0.55339025918540
  H   1.17870623104887     -1.10419148488446     -1.20752053302489
  H   2.21878568523042     -1.25448199959355      0.23069408865321
  H   -1.18284957072643     -1.36778522100312     -0.89093233421229
  H   -1.75430426757891     -1.70012360547933      0.76323344281429
  H   -1.22264149078711      0.61303908084868      1.45036250378676
  H   -2.26754488591831      0.66788522212902      0.02114872469922
