25
Coordinates from ORCA-job file
  C   3.50170014430996      0.94870864306060      1.90506605916312
  C   2.34191885684507      0.33112365917160      1.17659566081375
  C   2.17902345191564      0.52854620199059     -0.20601481230921
  C   1.13357916198330     -0.06004905897198     -0.90089248098079
  C   0.23852260330562     -0.86729380237355     -0.18623992900083
  S   -1.07848788421302     -1.63479169668639     -1.04948545927438
  O   -1.71996134220423     -2.67886332022320     -0.29200829784384
  O   -0.89238585591364     -1.64648273927758     -2.48285708094900
  N   -2.50915939157621     -0.18688844421268     -0.95993520546376
  C   -2.70495177492322      0.99502708040621     -0.05555898582208
  C   -2.45858459531037      1.18016049366744     -1.49311200309834
  C   -3.35433769189682      0.21661546750795     -2.14126094478671
  C   0.36325067669917     -1.08882795213389      1.19263619398386
  C   1.41882726495671     -0.48222946613120      1.85709219771273
  H   3.25639805688416      1.15900731867346      2.94750882870303
  H   3.83059095920113      1.87272466704742      1.42675720654032
  H   4.35241829611562      0.25735423792833      1.90237325805837
  H   2.88925887445165      1.14424546042132     -0.74603665612548
  H   1.02768110332136      0.07775337382054     -1.96976930554480
  H   -3.70229744943209      1.13028110351940      0.35877600310260
  H   -1.87088712870363      1.16034630984302      0.61810895939106
  H   -3.01651475190390     -0.23580799014573     -3.06824569936205
  H   -4.42869698912565      0.25912055949475     -1.97320762984595
  H   -0.33323458242251     -1.73037395594681      1.71849217576490
  H   1.53632998763588     -0.64940615044963      2.92181794717348
