25
Coordinates from ORCA-job file E -990.273528090529
  C       3.477500      1.018300      1.574100
  C       2.254000      0.406600      0.958700
  C       2.100100      0.383200     -0.435400
  C       0.977700     -0.219600     -1.010600
  C      -0.004500     -0.807700     -0.200200
  S      -1.419100     -1.583800     -0.930300
  O      -1.842600     -2.735000     -0.061300
  O      -1.029600     -2.136500     -2.272800
  N      -2.785000     -0.505800     -1.140700
  C      -3.069600      0.249700      0.082700
  C      -2.641500      1.566900     -0.527100
  C      -2.385900      0.752900     -1.777000
  C       0.168000     -0.815600      1.191700
  C       1.290200     -0.213100      1.767900
  H       3.249700      1.416400      2.585900
  H       3.850900      1.858700      0.950800
  H       4.272600      0.248500      1.658100
  H       2.849800      0.829400     -1.077200
  H       0.878800     -0.230200     -2.088400
  H      -4.158400      0.242800      0.304000
  H      -2.455600     -0.029300      0.963500
  H      -1.327400      0.801100     -2.105400
  H      -3.095400      1.025200     -2.587600
  H      -0.562800     -1.291300      1.832900
  H       1.408100     -0.231800      2.844300
25
Coordinates from ORCA-job file E -990.299113545942
  C       3.481421      1.018493      1.575779
  C       2.259019      0.402660      0.959597
  C       2.101626      0.377877     -0.438937
  C       0.989562     -0.222845     -1.015168
  C       0.013959     -0.812984     -0.195297
  S      -1.387198     -1.615961     -0.927944
  O      -1.850959     -2.695826     -0.022809
  O      -1.019384     -2.084444     -2.286752
  N      -2.749483     -0.513103     -1.129616
  C      -3.093109      0.245119      0.105374
  C      -2.673072      1.529789     -0.548287
  C      -2.390495      0.763209     -1.807965
  C       0.174556     -0.821708      1.199903
  C       1.289462     -0.218991      1.768729
  H       3.263486      1.409072      2.577310
  H       3.857781      1.845514      0.961340
  H       4.272461      0.259083      1.661522
  H       2.852620      0.823359     -1.079993
  H       0.892018     -0.245879     -2.094565
  H      -4.176330      0.232881      0.317630
  H      -2.510196     -0.004938      1.003781
  H      -1.350475      0.850300     -2.154507
  H      -3.100921      1.025813     -2.611019
  H      -0.554668     -1.308724      1.837245
  H       1.408318     -0.237768      2.845249
25
Coordinates from ORCA-job file E -990.313923423571
  C       3.475905      1.025960      1.576941
  C       2.257114      0.401886      0.958569
  C       2.095014      0.376227     -0.440236
  C       0.993084     -0.229806     -1.021144
  C       0.027552     -0.825547     -0.194310
  S      -1.360097     -1.655307     -0.925339
  O      -1.881287     -2.643077      0.007641
  O      -1.036011     -2.035402     -2.292413
  N      -2.713270     -0.515528     -1.116985
  C      -3.094885      0.244426      0.121695
  C      -2.674875      1.488126     -0.563746
  C      -2.381249      0.768464     -1.824453
  C       0.177469     -0.834756      1.200867
  C       1.286913     -0.225876      1.763271
  H       3.263588      1.408106      2.576520
  H       3.853757      1.848784      0.968363
  H       4.270786      0.276905      1.663455
  H       2.846307      0.827222     -1.078200
  H       0.894650     -0.263405     -2.100460
  H      -4.175037      0.237544      0.331213
  H      -2.539248      0.000733      1.034247
  H      -1.355002      0.871179     -2.194848
  H      -3.092178      1.033178     -2.621483
  H      -0.548353     -1.335574      1.831532
  H       1.409354     -0.244461      2.839904
25
Coordinates from ORCA-job file E -990.318566298891
  C       3.485289      1.027008      1.578929
  C       2.266805      0.398573      0.962898
  C       2.090366      0.386378     -0.432069
  C       0.991246     -0.225715     -1.015371
  C       0.037348     -0.831805     -0.184782
  S      -1.333405     -1.691442     -0.913566
  O      -1.901493     -2.611751      0.041286
  O      -1.038720     -2.001883     -2.290253
  N      -2.679182     -0.511355     -1.104560
  C      -3.114671      0.256947      0.114246
  C      -2.673806      1.469479     -0.583413
  C      -2.390706      0.770416     -1.841449
  C       0.191338     -0.850597      1.208261
  C       1.301620     -0.234775      1.765344
  H       3.281733      1.395366      2.585733
  H       3.859587      1.854894      0.974506
  H       4.287792      0.284911      1.655214
  H       2.838453      0.846308     -1.068355
  H       0.894200     -0.272910     -2.093928
  H      -4.201425      0.258452      0.292350
  H      -2.607170      0.013880      1.055432
  H      -1.381330      0.884327     -2.254886
  H      -3.120892      1.025517     -2.625446
  H      -0.518655     -1.379218      1.833510
  H       1.435678     -0.261004      2.840971
25
Coordinates from ORCA-job file E -990.319690857105
  C       3.494330      1.023817      1.586094
  C       2.278077      0.396170      0.965914
  C       2.112317      0.374629     -0.429359
  C       1.015530     -0.239227     -1.017478
  C       0.051780     -0.832288     -0.189620
  S      -1.312482     -1.697251     -0.921930
  O      -1.884076     -2.617579      0.035354
  O      -1.029534     -1.980529     -2.310412
  N      -2.664657     -0.504330     -1.092731
  C      -3.126388      0.256462      0.115892
  C      -2.668088      1.471238     -0.568709
  C      -2.423914      0.776775     -1.838567
  C       0.194044     -0.840319      1.204582
  C       1.301910     -0.221263      1.765811
  H       3.285538      1.400349      2.589260
  H       3.879368      1.843534      0.976519
  H       4.293392      0.278516      1.675577
  H       2.868305      0.825736     -1.062567
  H       0.931464     -0.304017     -2.095943
  H      -4.218449      0.261754      0.265778
  H      -2.652338      0.002127      1.072019
  H      -1.438756      0.902243     -2.304312
  H      -3.191512      1.022504     -2.590572
  H      -0.522110     -1.363532      1.827093
  H       1.426249     -0.235519      2.842907
25
Coordinates from ORCA-job file E -990.320689753132
  C       3.501030      1.027278      1.586580
  C       2.286697      0.392766      0.971068
  C       2.110271      0.384200     -0.422882
  C       1.015481     -0.236295     -1.008205
  C       0.066761     -0.848977     -0.177770
  S      -1.297581     -1.710529     -0.908164
  O      -1.887470     -2.619804      0.055970
  O      -1.024777     -1.993476     -2.304477
  N      -2.639085     -0.486095     -1.079099
  C      -3.141743      0.277738      0.099516
  C      -2.622866      1.486547     -0.568719
  C      -2.429293      0.775664     -1.846773
  C       0.218800     -0.867815      1.215858
  C       1.323586     -0.240405      1.774333
  H       3.298153      1.389549      2.596028
  H       3.872822      1.855785      0.980979
  H       4.309495      0.290130      1.661450
  H       2.854184      0.852861     -1.057352
  H       0.919074     -0.287286     -2.086145
  H      -4.241589      0.310765      0.179819
  H      -2.744061      0.007588      1.084523
  H      -1.476603      0.892723     -2.376642
  H      -3.239027      1.010669     -2.558295
  H      -0.487399     -1.403887      1.838598
  H       1.455143     -0.259693      2.850401
25
Coordinates from ORCA-job file E -990.321551957026
  C       3.502514      1.028941      1.596432
  C       2.292664      0.391829      0.975312
  C       2.128954      0.374316     -0.420342
  C       1.039135     -0.249371     -1.010415
  C       0.084694     -0.857407     -0.182490
  S      -1.278861     -1.711874     -0.915855
  O      -1.871320     -2.630289      0.038887
  O      -1.024000     -1.978326     -2.319751
  N      -2.620791     -0.470415     -1.061742
  C      -3.134256      0.283289      0.107602
  C      -2.568738      1.485036     -0.554371
  C      -2.457497      0.773649     -1.851541
  C       0.223265     -0.866645      1.212753
  C       1.323181     -0.235969      1.775781
  H       3.292689      1.396078      2.602609
  H       3.880124      1.853145      0.988675
  H       4.309903      0.291616      1.681461
  H       2.877845      0.839125     -1.051625
  H       0.949326     -0.305199     -2.088569
  H      -4.235733      0.344829      0.142800
  H      -2.785804     -0.006581      1.104277
  H      -1.554595      0.884673     -2.460668
  H      -3.324545      1.003979     -2.494551
  H      -0.492665     -1.392442      1.832871
  H       1.444509     -0.245987      2.853058
25
Coordinates from ORCA-job file E -990.322411173396
  C       3.502986      1.030573      1.606884
  C       2.298184      0.391006      0.979050
  C       2.150213      0.361681     -0.418444
  C       1.065940     -0.265194     -1.014076
  C       0.103424     -0.865849     -0.189374
  S      -1.258871     -1.712927     -0.926644
  O      -1.853145     -2.642092      0.017533
  O      -1.022452     -1.960751     -2.338224
  N      -2.601460     -0.454981     -1.044571
  C      -3.124081      0.287788      0.116180
  C      -2.515584      1.482158     -0.540688
  C      -2.488330      0.771581     -1.852592
  C       0.225420     -0.862445      1.207560
  C       1.319975     -0.228642      1.775992
  H       3.284645      1.404862      2.608485
  H       3.888735      1.848655      0.996130
  H       4.308096      0.292342      1.705266
  H       2.905953      0.820320     -1.045902
  H       0.985019     -0.328237     -2.092423
  H      -4.224767      0.376551      0.107998
  H      -2.824378     -0.019293      1.122222
  H      -1.643498      0.878516     -2.537969
  H      -3.408191      0.996597     -2.420696
  H      -0.502503     -1.375176      1.824373
  H       1.428671     -0.227044      2.854531
25
Coordinates from ORCA-job file E -990.323620633303
  C       3.497559      1.035894      1.614107
  C       2.297649      0.391799      0.981096
  C       2.159656      0.356246     -0.417514
  C       1.080500     -0.274283     -1.017084
  C       0.115226     -0.875071     -0.194548
  S      -1.246229     -1.716824     -0.932933
  O      -1.841149     -2.653321      0.001584
  O      -1.024282     -1.961191     -2.346590
  N      -2.585205     -0.448328     -1.033881
  C      -3.108672      0.293057      0.120949
  C      -2.430735      1.464834     -0.527535
  C      -2.504923      0.766379     -1.853400
  C       0.227449     -0.866179      1.203297
  C       1.316386     -0.227737      1.775309
  H       3.272095      1.413864      2.612556
  H       3.885499      1.852247      1.002721
  H       4.302827      0.299286      1.720305
  H       2.918401      0.813311     -1.042333
  H       1.004600     -0.339591     -2.095418
  H      -4.204145      0.424442      0.067123
  H      -2.857831     -0.024319      1.134989
  H      -1.717967      0.869145     -2.602119
  H      -3.467606      0.999962     -2.342116
  H      -0.506495     -1.373055      1.817569
  H       1.417391     -0.220567      2.854468
25
Coordinates from ORCA-job file E -990.323725768609
  C       3.474790      1.040597      1.614382
  C       2.275487      0.396141      0.972499
  C       2.142606      0.362072     -0.429175
  C       1.069139     -0.264162     -1.030533
  C       0.100863     -0.865999     -0.204982
  S      -1.260853     -1.702108     -0.929445
  O      -1.839662     -2.641162     -0.036168
  O      -1.067733     -1.995958     -2.306423
  N      -2.584306     -0.443187     -1.030772
  C      -3.068912      0.274961      0.165232
  C      -2.341904      1.427063     -0.513904
  C      -2.464158      0.759345     -1.876309
  C       0.206699     -0.863019      1.192913
  C       1.289465     -0.228772      1.764087
  H       3.242676      1.419795      2.608861
  H       3.861060      1.860989      1.010598
  H       4.274650      0.303004      1.720340
  H       2.902251      0.818258     -1.053457
  H       0.995444     -0.325003     -2.108613
  H      -4.160465      0.424704      0.108463
  H      -2.790539     -0.028665      1.164874
  H      -1.677587      0.864345     -2.610678
  H      -3.434914      1.001901     -2.340141
  H      -0.529334     -1.368623      1.805501
  H       1.385233     -0.226517      2.843452
25
Coordinates from ORCA-job file E -990.325063210283
  C       3.469638      1.044134      1.623536
  C       2.275566      0.396905      0.974594
  C       2.157733      0.352239     -0.428519
  C       1.090094     -0.276876     -1.035336
  C       0.114491     -0.873226     -0.213096
  S      -1.244936     -1.703874     -0.940583
  O      -1.823782     -2.652603     -0.060072
  O      -1.068996     -1.986333     -2.321048
  N      -2.566537     -0.432466     -1.017358
  C      -3.051386      0.277451      0.174620
  C      -2.265456      1.401144     -0.507147
  C      -2.489099      0.754262     -1.876748
  C       0.204632     -0.859366      1.186014
  C       1.281699     -0.222059      1.762217
  H       3.228575      1.430434      2.612931
  H       3.863077      1.859385      1.017731
  H       4.266886      0.305901      1.742233
  H       2.923728      0.802910     -1.048894
  H       1.024959     -0.343697     -2.113482
  H      -4.134128      0.465372      0.076965
  H      -2.816788     -0.035581      1.180648
  H      -1.767804      0.856913     -2.672687
  H      -3.495658      1.002626     -2.253039
  H      -0.542089     -1.353525      1.794726
  H       1.365580     -0.210068      2.842392
25
Coordinates from ORCA-job file E -990.327688564774
  C       3.463114      1.049198      1.632668
  C       2.273190      0.397901      0.981589
  C       2.156131      0.357734     -0.421113
  C       1.090553     -0.274520     -1.031449
  C       0.119184     -0.881781     -0.213216
  S      -1.237423     -1.713578     -0.946566
  O      -1.817801     -2.669883     -0.063558
  O      -1.060433     -1.983965     -2.336727
  N      -2.556869     -0.434283     -1.010562
  C      -3.026578      0.299057      0.166022
  C      -2.173998      1.362935     -0.530805
  C      -2.516290      0.736008     -1.884226
  C       0.210433     -0.873535      1.186492
  C       1.284594     -0.230958      1.766462
  H       3.219251      1.431326      2.623549
  H       3.852566      1.868414      1.028758
  H       4.265040      0.314649      1.749928
  H       2.920225      0.814751     -1.039181
  H       1.024361     -0.335221     -2.109997
  H      -4.094678      0.543487      0.040915
  H      -2.825818     -0.011760      1.181970
  H      -1.859429      0.820702     -2.738587
  H      -3.544859      1.010476     -2.171543
  H      -0.533728     -1.374130      1.793038
  H       1.369263     -0.223028      2.846739
25
Coordinates from ORCA-job file E -990.331633066914
  C       3.449129      1.059882      1.639132
  C       2.265502      0.401426      0.988027
  C       2.149927      0.361584     -0.413199
  C       1.085018     -0.275642     -1.026860
  C       0.116064     -0.891487     -0.214806
  S      -1.238939     -1.725979     -0.959732
  O      -1.820856     -2.695327     -0.064268
  O      -1.048677     -1.973175     -2.369596
  N      -2.553420     -0.433425     -1.004529
  C      -2.994335      0.318022      0.161236
  C      -2.076062      1.295385     -0.558592
  C      -2.536395      0.719263     -1.888395
  C       0.211279     -0.887593      1.185771
  C       1.284744     -0.238499      1.770201
  H       3.200566      1.441589      2.630409
  H       3.834212      1.881473      1.033344
  H       4.257780      0.330191      1.759142
  H       2.913083      0.823269     -1.029090
  H       1.017901     -0.331431     -2.106209
  H      -4.038559      0.635516      0.021137
  H      -2.811262     -0.004784      1.182249
  H      -1.936578      0.769674     -2.791485
  H      -3.569557      1.044267     -2.084871
  H      -0.532105     -1.391144      1.790986
  H       1.371538     -0.233056      2.850596
25
Coordinates from ORCA-job file E -990.336434237223
  C       3.425096      1.071611      1.643272
  C       2.244357      0.407037      0.995281
  C       2.110837      0.389867     -0.402982
  C       1.043762     -0.250139     -1.016530
  C       0.090177     -0.892149     -0.208670
  S      -1.263984     -1.737119     -0.961283
  O      -1.840763     -2.714273     -0.051231
  O      -1.050260     -1.976036     -2.381359
  N      -2.571297     -0.443340     -1.004711
  C      -2.938395      0.349278      0.161777
  C      -1.958741      1.187183     -0.618638
  C      -2.534599      0.689703     -1.916624
  C       0.210167     -0.917049      1.190514
  C       1.285182     -0.263275      1.775466
  H       3.179060      1.439681      2.641293
  H       3.792907      1.906700      1.043823
  H       4.245325      0.350957      1.748166
  H       2.862054      0.870562     -1.019231
  H       0.964781     -0.287181     -2.096282
  H      -3.951912      0.752082      0.046203
  H      -2.718010      0.022294      1.176964
  H      -1.955836      0.676477     -2.838277
  H      -3.544974      1.094551     -2.056744
  H      -0.514940     -1.446606      1.795954
  H       1.390006     -0.280816      2.854449
25
Coordinates from ORCA-job file E -990.342631085128
  C       3.413289      1.075378      1.644249
  C       2.229665      0.410929      1.004323
  C       2.060340      0.436522     -0.388244
  C       0.987974     -0.203657     -0.996042
  C       0.058610     -0.880185     -0.187768
  S      -1.296549     -1.738389     -0.945058
  O      -1.876027     -2.709485     -0.012860
  O      -1.055554     -1.973894     -2.372404
  N      -2.599406     -0.429268     -1.005092
  C      -2.903360      0.390230      0.165931
  C      -1.897007      1.075137     -0.691249
  C      -2.521942      0.660837     -1.973474
  C       0.220760     -0.954217      1.205307
  C       1.302968     -0.303174      1.784561
  H       3.181468      1.415807      2.655998
  H       3.757099      1.930392      1.058100
  H       4.246762      0.364830      1.716571
  H       2.788381      0.949123     -1.006670
  H       0.884087     -0.210108     -2.074756
  H      -3.887411      0.856908      0.082842
  H      -2.628639      0.036106      1.159546
  H      -1.930022      0.541369     -2.879409
  H      -3.497270      1.135415     -2.113057
  H      -0.478165     -1.518515      1.810419
  H       1.439950     -0.358089      2.858837
25
Coordinates from ORCA-job file E -990.347561526070
  C       3.439637      1.063579      1.640125
  C       2.247232      0.407808      1.007510
  C       2.053123      0.458517     -0.380387
  C       0.974176     -0.176614     -0.981104
  C       0.056066     -0.862045     -0.166816
  S      -1.301337     -1.727397     -0.923179
  O      -1.888997     -2.679925      0.018888
  O      -1.048563     -1.953608     -2.347473
  N      -2.626033     -0.403962     -1.012556
  C      -2.965743      0.404509      0.169754
  C      -1.966129      1.045908     -0.705059
  C      -2.519698      0.669152     -2.016211
  C       0.239929     -0.960764      1.220035
  C       1.330834     -0.317968      1.790645
  H       3.221435      1.394184      2.657732
  H       3.781009      1.921703      1.058095
  H       4.272420      0.351689      1.698072
  H       2.768088      0.985966     -1.001606
  H       0.855186     -0.170795     -2.058061
  H      -3.959001      0.850483      0.106897
  H      -2.660621      0.011808      1.136791
  H      -1.862825      0.483687     -2.862068
  H      -3.481574      1.137073     -2.235674
  H      -0.445608     -1.541591      1.825033
  H       1.486992     -0.391397      2.861216
25
Coordinates from ORCA-job file E -990.351144925692
  C       3.482317      1.036199      1.659500
  C       2.282295      0.395943      1.022981
  C       2.082331      0.464802     -0.364732
  C       1.001380     -0.159101     -0.968623
  C       0.088669     -0.849003     -0.154258
  S      -1.266852     -1.707114     -0.911621
  O      -1.865217     -2.646752      0.013702
  O      -1.033809     -1.914663     -2.327678
  N      -2.634153     -0.367202     -1.008361
  C      -3.020691      0.441379      0.171574
  C      -2.076510      1.076509     -0.765448
  C      -2.603648      0.663578     -2.076676
  C       0.265515     -0.956288      1.231010
  C       1.359268     -0.325441      1.802850
  H       3.269978      1.362266      2.679011
  H       3.835744      1.891612      1.082132
  H       4.306422      0.315587      1.714267
  H       2.795282      0.998995     -0.982477
  H       0.878166     -0.141917     -2.044441
  H      -4.047843      0.806209      0.136396
  H      -2.668096      0.063146      1.124083
  H      -1.933852      0.442414     -2.899705
  H      -3.588964      1.053870     -2.336756
  H      -0.422205     -1.539663      1.830940
  H       1.514475     -0.405366      2.872931
25
Coordinates from ORCA-job file E -990.352395841649
  C       3.507561      1.013591      1.681599
  C       2.301995      0.383554      1.044528
  C       2.082433      0.487732     -0.338571
  C       0.998333     -0.128027     -0.945591
  C       0.106399     -0.847170     -0.137552
  S      -1.247730     -1.696592     -0.898223
  O      -1.855372     -2.630136      0.017738
  O      -1.019402     -1.890426     -2.311016
  N      -2.644140     -0.351539     -1.005751
  C      -3.019705      0.513146      0.149976
  C      -2.166548      1.141296     -0.866756
  C      -2.687962      0.626102     -2.137087
  C       0.294112     -0.981202      1.243051
  C       1.390685     -0.357487      1.817607
  H       3.307285      1.314516      2.711250
  H       3.852645      1.882662      1.119762
  H       4.334517      0.294765      1.710034
  H       2.783110      1.044245     -0.950734
  H       0.860963     -0.082779     -2.018788
  H      -4.069486      0.806830      0.181402
  H      -2.586928      0.192888      1.091402
  H      -2.008621      0.370676     -2.943874
  H      -3.690053      0.938711     -2.434064
  H      -0.381197     -1.585738      1.836148
  H       1.557106     -0.459618      2.884112
25
Coordinates from ORCA-job file E -990.353277649641
  C       3.519251      0.996492      1.716194
  C       2.314304      0.373045      1.070379
  C       2.085541      0.511431     -0.308958
  C       1.003942     -0.098021     -0.925814
  C       0.128726     -0.849390     -0.130593
  S      -1.222104     -1.684547     -0.898735
  O      -1.836624     -2.624807     -0.004210
  O      -1.008701     -1.862890     -2.310262
  N      -2.639180     -0.326642     -0.995162
  C      -2.973339      0.601906      0.126758
  C      -2.197542      1.154274     -0.992230
  C      -2.799763      0.561916     -2.191907
  C       0.319412     -1.011928      1.246080
  C       1.413019     -0.393007      1.830252
  H       3.322793      1.270929      2.753820
  H       3.855531      1.881008      1.173675
  H       4.350536      0.282530      1.722441
  H       2.776647      1.091132     -0.910335
  H       0.858253     -0.023011     -1.996070
  H      -4.027244      0.867609      0.213031
  H      -2.474385      0.351897      1.055710
  H      -2.173884      0.257812     -3.023783
  H      -3.828770      0.823168     -2.441607
  H      -0.349615     -1.633773      1.828187
  H       1.583196     -0.517132      2.893740
25
Coordinates from ORCA-job file E -990.353945581160
  C       3.525143      0.981977      1.750878
  C       2.323072      0.362947      1.095323
  C       2.087740      0.532847     -0.279807
  C       1.009165     -0.071132     -0.907333
  C       0.147039     -0.851585     -0.126958
  S      -1.199473     -1.674119     -0.905583
  O      -1.818668     -2.626953     -0.030724
  O      -0.995126     -1.831185     -2.319721
  N      -2.631459     -0.303190     -0.985294
  C      -2.916946      0.692184      0.093949
  C      -2.232221      1.166489     -1.116054
  C      -2.909226      0.491904     -2.228128
  C       0.340640     -1.041924      1.245723
  C       1.431461     -0.427911      1.840591
  H       3.330554      1.230016      2.795563
  H       3.851463      1.881924      1.227843
  H       4.362288      0.274943      1.736610
  H       2.770548      1.134134     -0.869279
  H       0.857295      0.031404     -1.974396
  H      -3.968614      0.937929      0.242514
  H      -2.348137      0.515885      0.999435
  H      -2.337454      0.138689     -3.079467
  H      -3.960360      0.707820     -2.422197
  H      -0.323521     -1.679348      1.816364
  H       1.604796     -0.573744      2.900748
25
Coordinates from ORCA-job file E -990.354561004816
  C       3.528728      0.967777      1.786604
  C       2.330528      0.354312      1.118690
  C       2.096548      0.548164     -0.253878
  C       1.021421     -0.048927     -0.893971
  C       0.164341     -0.849887     -0.129437
  S      -1.174936     -1.662402     -0.922388
  O      -1.793652     -2.635859     -0.071382
  O      -0.977829     -1.790809     -2.340376
  N      -2.621978     -0.282958     -0.975319
  C      -2.860225      0.774942      0.056881
  C      -2.270358      1.167491     -1.229477
  C      -3.020132      0.420129     -2.242937
  C       0.354402     -1.061646      1.240994
  C       1.441625     -0.453323      1.848709
  H       3.331512      1.196285      2.835345
  H       3.850891      1.878655      1.279963
  H       4.369045      0.264750      1.760298
  H       2.777065      1.163681     -0.831117
  H       0.869774      0.074731     -1.958783
  H      -3.903789      1.007781      0.268690
  H      -2.222867      0.671646      0.927447
  H      -2.504594      0.022150     -3.110628
  H      -4.088201      0.598297     -2.370260
  H      -0.309939     -1.708882      1.800186
  H       1.612621     -0.616098      2.906747
25
Coordinates from ORCA-job file E -990.355123138233
  C       3.529382      0.955751      1.821398
  C       2.336800      0.346208      1.139952
  C       2.110011      0.556948     -0.231631
  C       1.039397     -0.033763     -0.884994
  C       0.182121     -0.849065     -0.136092
  S      -1.149131     -1.650965     -0.946039
  O      -1.767603     -2.648170     -0.122138
  O      -0.958301     -1.745690     -2.368580
  N      -2.608182     -0.261171     -0.965741
  C      -2.808264      0.851867      0.016911
  C      -2.315341      1.165432     -1.330056
  C      -3.125567      0.351152     -2.239085
  C       0.364700     -1.077523      1.233444
  C       1.446535     -0.473047      1.855158
  H       3.326039      1.170523      2.871952
  H       3.850318      1.874221      1.327614
  H       4.372155      0.255704      1.789915
  H       2.791684      1.182014     -0.797046
  H       0.891565      0.106455     -1.948289
  H      -3.840088      1.072610      0.289375
  H      -2.107880      0.820328      0.843909
  H      -2.663815     -0.085605     -3.118622
  H      -4.204737      0.494089     -2.294897
  H      -0.302914     -1.730519      1.781888
  H       1.611118     -0.647785      2.912295
25
Coordinates from ORCA-job file E -990.355597648446
  C       3.523214      0.948429      1.856080
  C       2.340219      0.339365      1.157683
  C       2.131331      0.555293     -0.216116
  C       1.068139     -0.031151     -0.885070
  C       0.202179     -0.851134     -0.151131
  S      -1.121238     -1.640455     -0.980752
  O      -1.738145     -2.665106     -0.188575
  O      -0.937616     -1.694324     -2.407749
  N      -2.589463     -0.240632     -0.955353
  C      -2.757526      0.917912     -0.018713
  C      -2.361864      1.158873     -1.411683
  C      -3.224872      0.288785     -2.213725
  C       0.367687     -1.085774      1.220424
  C       1.441290     -0.483106      1.858429
  H       3.306299      1.159685      2.904691
  H       3.848450      1.869207      1.369262
  H       4.367201      0.249417      1.832298
  H       2.820080      1.182690     -0.770196
  H       0.931389      0.117319     -1.948741
  H      -3.773796      1.127750      0.313430
  H      -1.999538      0.952818      0.755918
  H      -2.817967     -0.178931     -3.104596
  H      -4.308375      0.402338     -2.191302
  H      -0.308628     -1.738073      1.758934
  H       1.591552     -0.661195      2.917153
25
Coordinates from ORCA-job file E -990.355934909800
  C       3.510381      0.944926      1.890277
  C       2.339617      0.334061      1.173099
  C       2.153913      0.549185     -0.204206
  C       1.100645     -0.035562     -0.890163
  C       0.222875     -0.856990     -0.171379
  S      -1.093247     -1.632529     -1.022232
  O      -1.710241     -2.683740     -0.262899
  O      -0.915972     -1.643776     -2.452851
  N      -2.565121     -0.221094     -0.945919
  C      -2.703923      0.977879     -0.054255
  C      -2.409379      1.150724     -1.481745
  C      -3.316287      0.230850     -2.171759
  C       0.366519     -1.091969      1.203462
  C       1.429277     -0.488636      1.859100
  H       3.276105      1.157233      2.934989
  H       3.842107      1.865803      1.407905
  H       4.355331      0.246617      1.880500
  H       2.852194      1.175862     -0.747028
  H       0.978839      0.116377     -1.955196
  H      -3.699896      1.178330      0.338898
  H      -1.892115      1.076351      0.658203
  H      -2.966327     -0.262922     -3.072866
  H      -4.396679      0.320516     -2.065872
  H      -0.320070     -1.741641      1.732115
  H       1.561454     -0.665855      2.920419
25
Coordinates from ORCA-job file E -990.356136329584
  C       3.486902      0.948173      1.922651
  C       2.332401      0.329244      1.186611
  C       2.165703      0.546310     -0.192728
  C       1.125262     -0.042265     -0.895155
  C       0.240974     -0.871911     -0.192206
  S      -1.069786     -1.634284     -1.062632
  O      -1.695068     -2.703341     -0.329050
  O      -0.895418     -1.613505     -2.496797
  N      -2.528806     -0.197517     -0.937195
  C      -2.641580      1.043114     -0.098114
  C      -2.446758      1.141983     -1.549114
  C      -3.391911      0.177341     -2.115490
  C       0.368982     -1.111460      1.184138
  C       1.418548     -0.503478      1.856481
  H       3.235598      1.154924      2.964543
  H       3.816269      1.874062      1.448326
  H       4.338532      0.257849      1.922405
  H       2.868237      1.178302     -0.723852
  H       1.015568      0.114140     -1.961019
  H      -3.614321      1.239593      0.350310
  H      -1.781882      1.208187      0.542938
  H      -3.103080     -0.340785     -3.024693
  H      -4.460259      0.254922     -1.920790
  H      -0.321382     -1.765811      1.702135
  H       1.537275     -0.683786      2.918896
25
Coordinates from ORCA-job file E -990.356206338943
  C       3.483784      0.953746      1.915146
  C       2.329544      0.331731      1.181688
  C       2.161943      0.543361     -0.198296
  C       1.121975     -0.049483     -0.898012
  C       0.237422     -0.875845     -0.191309
  S      -1.074213     -1.642977     -1.058469
  O      -1.703103     -2.705970     -0.316247
  O      -0.898297     -1.631361     -2.493660
  N      -2.524857     -0.198837     -0.936992
  C      -2.649192      1.028960     -0.081959
  C      -2.433227      1.150418     -1.527959
  C      -3.370266      0.194177     -2.121211
  C       0.366964     -1.110335      1.185465
  C       1.417089     -0.499962      1.854731
  H       3.233285      1.161961      2.956924
  H       3.811140      1.879295      1.438775
  H       4.336775      0.265025      1.915503
  H       2.863972      1.173510     -0.732320
  H       1.012476      0.100710     -1.964898
  H      -3.629918      1.219407      0.351254
  H      -1.798476      1.186258      0.573088
  H      -3.069833     -0.307320     -3.036041
  H      -4.440310      0.274893     -1.937941
  H      -0.322461     -1.763691      1.705980
  H       1.537787     -0.677667      2.917358
25
Coordinates from ORCA-job file E -990.356261566714
  C       3.482102      0.959626      1.906111
  C       2.327856      0.333992      1.175876
  C       2.159485      0.538019     -0.205071
  C       1.118940     -0.058181     -0.901115
  C       0.233585     -0.879124     -0.189598
  S      -1.079896     -1.651455     -1.053200
  O      -1.712394     -2.707381     -0.302849
  O      -0.902020     -1.648476     -2.488497
  N      -2.521597     -0.200189     -0.938200
  C      -2.662629      1.010531     -0.061255
  C      -2.421459      1.158282     -1.500325
  C      -3.346713      0.214225     -2.129553
  C       0.364868     -1.107863      1.187581
  C       1.415476     -0.494105      1.853210
  H       3.232307      1.171208      2.947311
  H       3.807976      1.883980      1.426471
  H       4.336186      0.272338      1.908445
  H       2.861600      1.164799     -0.742966
  H       1.009606      0.084308     -1.969093
  H      -3.651777      1.192368      0.355622
  H      -1.820067      1.157493      0.606303
  H      -3.025780     -0.264889     -3.049330
  H      -4.419139      0.296848     -1.963062
  H      -0.324122     -1.759213      1.711299
  H       1.537608     -0.667139      2.916488
25
Coordinates from ORCA-job file E -990.356289220660
  C       3.484487      0.960140      1.902570
  C       2.329217      0.334224      1.174210
  C       2.160196      0.535633     -0.207060
  C       1.118631     -0.060708     -0.901325
  C       0.232857     -0.878903     -0.187550
  S      -1.081804     -1.652653     -1.049681
  O      -1.716380     -2.704907     -0.296520
  O      -0.902816     -1.654056     -2.484599
  N      -2.520158     -0.199837     -0.941442
  C      -2.672510      1.002620     -0.054382
  C      -2.422175      1.164772     -1.491231
  C      -3.339163      0.221334     -2.135083
  C       0.364639     -1.105491      1.189829
  C       1.416259     -0.491450      1.853674
  H       3.236063      1.172472      2.943931
  H       3.809829      1.884183      1.421960
  H       4.338680      0.273023      1.904365
  H       2.862751      1.160411     -0.746715
  H       1.008715      0.079403     -1.969539
  H      -3.665624      1.176260      0.356326
  H      -1.834132      1.148083      0.618566
  H      -3.009155     -0.247153     -3.056928
  H      -4.412796      0.300594     -1.974939
  H      -0.324556     -1.755523      1.714943
  H       1.538945     -0.662472      2.917221
25
Coordinates from ORCA-job file E -990.356327899470
  C       3.490414      0.957858      1.900699
  C       2.333351      0.333446      1.173870
  C       2.164522      0.532838     -0.207782
  C       1.121397     -0.061886     -0.900803
  C       0.234087     -0.876230     -0.184954
  S      -1.082110     -1.649952     -1.046650
  O      -1.720351     -2.696885     -0.290823
  O      -0.901094     -1.656676     -2.480688
  N      -2.516319     -0.195497     -0.948930
  C      -2.687196      0.996297     -0.050308
  C      -2.430633      1.171162     -1.486108
  C      -3.338409      0.224706     -2.141264
  C       0.365007     -1.101065      1.192672
  C       1.418248     -0.488404      1.855145
  H       3.243976      1.169918      2.942529
  H       3.815711      1.881884      1.420092
  H       4.344249      0.270400      1.900763
  H       2.868633      1.154670     -0.748818
  H       1.011025      0.076664     -1.969128
  H      -3.684508      1.155352      0.355629
  H      -1.852241      1.145262      0.625680
  H      -3.000089     -0.233028     -3.065105
  H      -4.412792      0.295479     -1.982911
  H      -0.325535     -1.748885      1.718758
  H       1.540657     -0.657429      2.919036
25
Coordinates from ORCA-job file E -990.356352443298
  C       3.496707      0.953657      1.901814
  C       2.338033      0.332096      1.175074
  C       2.170863      0.530861     -0.206897
  C       1.126309     -0.061074     -0.900141
  C       0.236537     -0.872391     -0.183961
  S      -1.080474     -1.643971     -1.046241
  O      -1.720651     -2.688428     -0.289406
  O      -0.897743     -1.653562     -2.479756
  N      -2.513535     -0.191378     -0.955226
  C      -2.698261      0.994838     -0.052045
  C      -2.444162      1.177018     -1.488597
  C      -3.344771      0.222315     -2.143629
  C       0.365203     -1.096121      1.194045
  C       1.419817     -0.486006      1.856687
  H       3.251446      1.165044      2.944044
  H       3.823215      1.877644      1.421924
  H       4.349394      0.264796      1.900339
  H       2.877240      1.150105     -0.747940
  H       1.016749      0.077346     -1.968539
  H      -3.696736      1.141108      0.355696
  H      -1.864443      1.151043      0.623665
  H      -3.004407     -0.230842     -3.068955
  H      -4.419432      0.281273     -1.982506
  H      -0.327614     -1.741379      1.720248
  H       1.540715     -0.653995      2.920904
25
Coordinates from ORCA-job file E -990.356365867763
  C       3.501339      0.949680      1.904156
  C       2.341698      0.331033      1.176429
  C       2.177416      0.529067     -0.205977
  C       1.132031     -0.060223     -0.900298
  C       0.238902     -0.868608     -0.184778
  S      -1.078245     -1.637456     -1.048122
  O      -1.719569     -2.681095     -0.290913
  O      -0.893740     -1.648438     -2.481429
  N      -2.510627     -0.187227     -0.959779
  C      -2.705351      0.995283     -0.054862
  C      -2.456248      1.179882     -1.492442
  C      -3.352918      0.218006     -2.142878
  C       0.364531     -1.091076      1.193757
  C       1.420000     -0.483580      1.857477
  H       3.256195      1.160629      2.946500
  H       3.829737      1.873466      1.425117
  H       4.352599      0.259033      1.902058
  H       2.886484      1.145795     -0.746360
  H       1.024524      0.077998     -1.968930
  H      -3.703622      1.131911      0.356657
  H      -1.871575      1.158649      0.619364
  H      -3.013864     -0.234090     -3.069333
  H      -4.427310      0.265808     -1.976534
  H      -0.330984     -1.733628      1.719657
  H       1.538599     -0.650820      2.922065
25
Coordinates from ORCA-job file E -990.356369023492
  C       3.502245      0.948524      1.905069
  C       2.342397      0.330885      1.176774
  C       2.179238      0.528626     -0.205774
  C       1.133698     -0.059895     -0.900587
  C       0.239138     -0.867399     -0.185676
  S      -1.077927     -1.635091     -1.049133
  O      -1.719364     -2.678966     -0.291715
  O      -0.892412     -1.646575     -2.482477
  N      -2.509656     -0.186484     -0.960427
  C      -2.706184      0.995501     -0.055956
  C      -2.459467      1.180578     -1.493717
  C      -3.355082      0.216478     -2.141797
  C       0.363863     -1.089280      1.193103
  C       1.419503     -0.482640      1.857402
  H       3.256995      1.159118      2.947466
  H       3.831246      1.872367      1.426515
  H       4.352972      0.257189      1.902631
  H       2.889276      1.144536     -0.745811
  H       1.027328      0.078173     -1.969366
  H      -3.703830      1.130169      0.357803
  H      -1.872235      1.161046      0.617715
  H      -3.017040     -0.235938     -3.068639
  H      -4.429413      0.259881     -1.973804
  H      -0.332514     -1.730975      1.718902
  H       1.537224     -0.649827      2.922099
25
Coordinates from ORCA-job file E -990.356369499270
  C       3.501700      0.948709      1.905066
  C       2.341919      0.331124      1.176596
  C       2.179023      0.528546     -0.206015
  C       1.133579     -0.060049     -0.900892
  C       0.238523     -0.867294     -0.186240
  S      -1.078488     -1.634792     -1.049485
  O      -1.719961     -2.678863     -0.292008
  O      -0.892386     -1.646483     -2.482857
  N      -2.509159     -0.186888     -0.959935
  C      -2.704952      0.995027     -0.055559
  C      -2.458585      1.180160     -1.493112
  C      -3.354338      0.216615     -2.141261
  C       0.363251     -1.088828      1.192636
  C       1.418827     -0.482229      1.857092
  H       3.256398      1.159007      2.947509
  H       3.830591      1.872725      1.426757
  H       4.352418      0.257354      1.902373
  H       2.889259      1.144245     -0.746037
  H       1.027681      0.077753     -1.969769
  H      -3.702297      1.130281      0.358776
  H      -1.870887      1.160346      0.618109
  H      -3.016515     -0.235808     -3.068246
  H      -4.428697      0.259121     -1.973208
  H      -0.333235     -1.730374      1.718492
  H       1.536330     -0.649406      2.921818
