44
Coordinates from ORCA-job file E -1856.479659969209
  C       5.654400     -0.071900     -0.187600
  O       4.597800     -0.558900      0.633400
  C       3.233500     -0.441200      0.326400
  C       2.776200      0.181900     -0.847600
  C       1.398100      0.280000     -1.115000
  O       0.910200      0.897400     -2.279100
  C       1.725900      1.477100     -3.291800
  C       0.477200     -0.250100     -0.195900
  S      -1.246400     -0.120900     -0.536300
  C      -2.073600      1.115000      0.393400
  C      -2.428500      0.885100      1.729000
  C      -3.088500      1.878300      2.459300
  C      -3.398400      3.102700      1.856600
  Cl     -4.226600      4.348000      2.773100
  C      -3.049700      3.330900      0.520600
  C      -2.390000      2.337900     -0.210300
  C      -2.111300     -1.681100     -0.634000
  C      -3.372000     -1.607600     -1.460100
  O      -2.840300     -2.434200     -2.467800
  C      -1.627500     -2.556700     -1.763800
  C       0.924900     -0.882300      0.977100
  O      -0.022100     -1.418300      1.863800
  C       0.292500     -2.076300      3.086200
  C       2.306200     -0.968100      1.228600
  H       5.568100      1.028700     -0.308300
  H       6.625300     -0.300700      0.297600
  H       5.627300     -0.569400     -1.180100
  H       3.489100      0.588800     -1.548800
  H       2.387800      0.704900     -3.737600
  H       1.074400      1.889300     -4.089300
  H       2.332900      2.304000     -2.866500
  H      -2.206900     -0.061800      2.201500
  H      -3.360700      1.694500      3.490800
  H      -3.289000      4.275400      0.048700
  H      -2.122900      2.522200     -1.243400
  H      -2.234200     -2.213800      0.333400
  H      -4.238600     -2.094200     -0.961100
  H      -3.605700     -0.594500     -1.856500
  H      -1.455500     -3.608300     -1.445300
  H      -0.781700     -2.131200     -2.348500
  H      -0.649700     -2.390600      3.579900
  H       0.907600     -2.979000      2.886600
  H       0.834800     -1.383700      3.763800
  H       2.675800     -1.447500      2.124900
44
Coordinates from ORCA-job file E -1856.504677603534
  C       5.549777     -0.079588     -0.199873
  O       4.521402     -0.578002      0.647834
  C       3.206581     -0.442087      0.323062
  C       2.779147      0.189104     -0.853708
  C       1.414713      0.295151     -1.126379
  O       0.936719      0.898898     -2.254330
  C       1.815428      1.456540     -3.225521
  C       0.477885     -0.229305     -0.218970
  S      -1.239272     -0.079446     -0.591810
  C      -2.074246      1.129118      0.388656
  C      -2.408473      0.884292      1.727540
  C      -3.068517      1.862199      2.465393
  C      -3.393265      3.081292      1.865386
  Cl     -4.219183      4.307762      2.790299
  C      -3.064937      3.325205      0.530135
  C      -2.406927      2.347824     -0.210644
  C      -2.096088     -1.663464     -0.625088
  C      -3.402548     -1.625079     -1.432224
  O      -2.863110     -2.490872     -2.431259
  C      -1.609774     -2.584163     -1.753578
  C       0.918778     -0.865197      0.956292
  O      -0.034337     -1.374141      1.796031
  C       0.325794     -2.029768      3.008870
  C       2.280470     -0.967793      1.225124
  H       5.464536      1.009603     -0.317085
  H       6.504113     -0.310591      0.278092
  H       5.516208     -0.569274     -1.182964
  H       3.501470      0.592612     -1.548220
  H       2.467389      0.681981     -3.651502
  H       1.194757      1.873915     -4.021592
  H       2.421011      2.261030     -2.786646
  H      -2.164926     -0.061324      2.193015
  H      -3.328652      1.675986      3.499744
  H      -3.321084      4.270147      0.068275
  H      -2.153129      2.538030     -1.246645
  H      -2.179626     -2.147352      0.351701
  H      -4.246936     -2.089650     -0.905818
  H      -3.668633     -0.643788     -1.850048
  H      -1.406972     -3.608763     -1.414591
  H      -0.789399     -2.183551     -2.365771
  H      -0.600415     -2.339581      3.499018
  H       0.934861     -2.919812      2.803331
  H       0.869673     -1.345655      3.673446
  H       2.639936     -1.452641      2.123020
44
Coordinates from ORCA-job file E -1856.512737926711
  C       5.509830     -0.098299     -0.169582
  O       4.465717     -0.595311      0.667327
  C       3.186314     -0.436766      0.309617
  C       2.789202      0.205715     -0.872317
  C       1.432142      0.323607     -1.163763
  O       0.961361      0.926400     -2.268991
  C       1.874664      1.479902     -3.218074
  C       0.473831     -0.201089     -0.269580
  S      -1.229504     -0.025971     -0.691314
  C      -2.064225      1.141246      0.362405
  C      -2.359021      0.873674      1.705171
  C      -3.016318      1.831473      2.465855
  C      -3.371939      3.049275      1.881747
  Cl     -4.192341      4.249641      2.835160
  C      -3.081778      3.315768      0.543853
  C      -2.428103      2.357557     -0.221276
  C      -2.065621     -1.634375     -0.602983
  C      -3.417252     -1.659769     -1.361257
  O      -2.891280     -2.582686     -2.333655
  C      -1.596225     -2.616762     -1.704695
  C       0.896480     -0.845799      0.915438
  O      -0.080236     -1.335558      1.710304
  C       0.277437     -2.001392      2.925788
  C       2.245839     -0.962902      1.204084
  H       5.441777      0.987600     -0.281773
  H       6.440254     -0.347744      0.333566
  H       5.491772     -0.580532     -1.151206
  H       3.523424      0.606501     -1.551474
  H       2.522162      0.706189     -3.639410
  H       1.261559      1.902872     -4.009764
  H       2.478674      2.272150     -2.767529
  H      -2.081235     -0.070379      2.153576
  H      -3.250321      1.636157      3.504664
  H      -3.366056      4.261711      0.100988
  H      -2.202345      2.558945     -1.261821
  H      -2.089590     -2.045060      0.401754
  H      -4.232307     -2.095353     -0.779897
  H      -3.727168     -0.718153     -1.821337
  H      -1.350055     -3.609631     -1.323184
  H      -0.811448     -2.249121     -2.370384
  H      -0.657981     -2.301846      3.392294
  H       0.879916     -2.890307      2.723408
  H       0.816279     -1.328506      3.597374
  H       2.593914     -1.453270      2.100892
44
Coordinates from ORCA-job file E -1856.514700152485
  C       5.508195     -0.088723     -0.119082
  O       4.438329     -0.607376      0.678607
  C       3.168406     -0.435256      0.294794
  C       2.790344      0.239075     -0.874418
  C       1.436854      0.361766     -1.185069
  O       0.973673      0.997782     -2.274060
  C       1.896910      1.584460     -3.200631
  C       0.461168     -0.194016     -0.322344
  S      -1.227151      0.002559     -0.804191
  C      -2.041734      1.156199      0.298906
  C      -2.304353      0.888705      1.646832
  C      -2.953557      1.844091      2.417475
  C      -3.330040      3.057862      1.837287
  Cl     -4.140355      4.252859      2.805242
  C      -3.071567      3.324291      0.493743
  C      -2.427684      2.367190     -0.282156
  C      -2.048212     -1.605142     -0.544814
  C      -3.435110     -1.702546     -1.235619
  O      -2.942575     -2.707206     -2.148765
  C      -1.615660     -2.676796     -1.579591
  C       0.868596     -0.869107      0.858200
  O      -0.121428     -1.385710      1.620188
  C       0.226788     -2.093267      2.821092
  C       2.212836     -0.989888      1.161646
  H       5.446677      0.999327     -0.200271
  H       6.419080     -0.360181      0.407277
  H       5.514477     -0.543291     -1.112850
  H       3.534270      0.662252     -1.528582
  H       2.548830      0.825923     -3.639748
  H       1.281702      2.026475     -3.979713
  H       2.492824      2.364135     -2.720824
  H      -2.002845     -0.048306      2.091595
  H      -3.166078      1.652625      3.461542
  H      -3.375260      4.266588      0.056103
  H      -2.228749      2.564592     -1.328971
  H      -2.010914     -1.911932      0.493615
  H      -4.222567     -2.085744     -0.584173
  H      -3.781164     -0.808755     -1.760190
  H      -1.335154     -3.630944     -1.129879
  H      -0.864646     -2.368345     -2.310649
  H      -0.716607     -2.409895      3.259689
  H       0.834494     -2.971748      2.595389
  H       0.753965     -1.441226      3.520341
  H       2.555189     -1.503555      2.047028
44
Coordinates from ORCA-job file E -1856.515045315454
  C       5.531972     -0.166264     -0.165453
  O       4.459753     -0.633860      0.665467
  C       3.187708     -0.446076      0.292674
  C       2.801893      0.198896     -0.887638
  C       1.444473      0.337439     -1.175953
  O       0.969165      0.953282     -2.272859
  C       1.884439      1.486876     -3.243739
  C       0.468281     -0.182597     -0.287613
  S      -1.213325      0.047741     -0.804391
  C      -2.062757      1.147287      0.344587
  C      -2.345283      0.834299      1.677062
  C      -3.026090      1.756232      2.461722
  C      -3.412586      2.980832      1.910989
  Cl     -4.263155      4.130898      2.899468
  C      -3.132672      3.293387      0.582401
  C      -2.457266      2.369204     -0.208016
  C      -2.062166     -1.566969     -0.630941
  C      -3.412034     -1.633735     -1.394032
  O      -2.880761     -2.621640     -2.306712
  C      -1.584173     -2.617179     -1.667061
  C       0.887730     -0.819450      0.916263
  O      -0.090029     -1.273977      1.734517
  C       0.287039     -1.931749      2.959748
  C       2.235515     -0.952537      1.195367
  H       5.492834      0.919449     -0.281711
  H       6.440695     -0.443208      0.362376
  H       5.512822     -0.655451     -1.142246
  H       3.541149      0.590608     -1.566696
  H       2.503762      0.696557     -3.673319
  H       1.255193      1.917895     -4.018089
  H       2.511025      2.265358     -2.803390
  H      -2.028512     -0.106216      2.101535
  H      -3.256627      1.531881      3.495341
  H      -3.445908      4.243179      0.168380
  H      -2.243919      2.599765     -1.245214
  H      -2.069593     -1.883328      0.401850
  H      -4.238563     -2.022151     -0.795723
  H      -3.729081     -0.725472     -1.912955
  H      -1.330884     -3.585498     -1.230628
  H      -0.791198     -2.302725     -2.350267
  H      -0.649530     -2.204930      3.441067
  H       0.869033     -2.832314      2.755375
  H       0.850571     -1.256937      3.606758
  H       2.591261     -1.437000      2.091699
44
Coordinates from ORCA-job file E -1856.514563269076
  C       5.544537     -0.096357     -0.188678
  O       4.499962     -0.656183      0.621211
  C       3.216910     -0.474634      0.281330
  C       2.796885      0.246824     -0.839266
  C       1.431834      0.368340     -1.096249
  O       0.928051      1.056277     -2.138521
  C       1.819045      1.676303     -3.081450
  C       0.479798     -0.243491     -0.239578
  S      -1.210706     -0.014738     -0.743398
  C      -2.061861      1.182344      0.312028
  C      -2.391728      0.971303      1.652682
  C      -3.075881      1.961647      2.346573
  C      -3.419971      3.150813      1.698725
  Cl     -4.276840      4.384350      2.576567
  C      -3.092779      3.361917      0.361194
  C      -2.413260      2.369348     -0.338254
  C      -2.106001     -1.602875     -0.514377
  C      -3.450041     -1.662489     -1.282162
  O      -2.941755     -2.698135     -2.152619
  C      -1.652261     -2.706117     -1.500736
  C       0.935217     -0.959504      0.904749
  O      -0.011919     -1.517749      1.695782
  C       0.408397     -2.271690      2.850468
  C       2.290685     -1.074733      1.152673
  H       5.472621      0.993809     -0.219305
  H       6.469718     -0.387945      0.301803
  H       5.518331     -0.510396     -1.199852
  H       3.514973      0.710676     -1.496311
  H       2.446014      0.929078     -3.573336
  H       1.169833      2.148944     -3.814255
  H       2.436815      2.432990     -2.592714
  H      -2.107443      0.059171      2.154470
  H      -3.343575      1.817047      3.385488
  H      -3.372886      4.285464     -0.128925
  H      -2.164223      2.520751     -1.382046
  H      -2.121848     -1.866907      0.533870
  H      -4.292398     -2.004085     -0.676372
  H      -3.740562     -0.766350     -1.837577
  H      -1.430334     -3.664586     -1.025760
  H      -0.843366     -2.444118     -2.188311
  H      -0.510657     -2.617853      3.318660
  H       1.014716     -3.129838      2.553740
  H       0.962213     -1.638330      3.546323
  H       2.675940     -1.618494      2.001718
44
Coordinates from ORCA-job file E -1856.515524179841
  C       5.538558     -0.103632     -0.150640
  O       4.480500     -0.648599      0.648610
  C       3.200308     -0.466198      0.288413
  C       2.803633      0.243239     -0.849660
  C       1.444053      0.372154     -1.131316
  O       0.969368      1.053798     -2.195108
  C       1.882396      1.651633     -3.128083
  C       0.477321     -0.219190     -0.279718
  S      -1.210998     -0.002263     -0.780145
  C      -2.049377      1.174733      0.297400
  C      -2.280179      0.964894      1.659046
  C      -2.960559      1.932003      2.388882
  C      -3.399077      3.097683      1.755548
  Cl     -4.249355      4.303722      2.678293
  C      -3.167291      3.308282      0.397275
  C      -2.490625      2.339525     -0.337378
  C      -2.079521     -1.597818     -0.528874
  C      -3.442763     -1.667448     -1.253280
  O      -2.953079     -2.689925     -2.144469
  C      -1.647931     -2.690360     -1.531247
  C       0.904295     -0.921147      0.876844
  O      -0.068365     -1.457492      1.654953
  C       0.303699     -2.201011      2.829251
  C       2.254986     -1.045199      1.150818
  H       5.470972      0.987235     -0.194684
  H       6.458781     -0.391380      0.352718
  H       5.523793     -0.528865     -1.158335
  H       3.536346      0.692784     -1.500889
  H       2.513107      0.890743     -3.595593
  H       1.256359      2.121148     -3.883723
  H       2.497718      2.410141     -2.637039
  H      -1.925257      0.069232      2.149474
  H      -3.151484      1.786513      3.444540
  H      -3.516171      4.214431     -0.081046
  H      -2.312981      2.492417     -1.395294
  H      -2.063340     -1.870595      0.521192
  H      -4.261288     -2.024231     -0.622378
  H      -3.756092     -0.769151     -1.794164
  H      -1.407279     -3.649992     -1.065901
  H      -0.861897     -2.414953     -2.241096
  H      -0.632535     -2.528161      3.277532
  H       0.905530     -3.072750      2.560921
  H       0.847208     -1.566005      3.533076
  H       2.618713     -1.580145      2.015271
44
Coordinates from ORCA-job file E -1856.515674703198
  C       5.540388     -0.142323     -0.148536
  O       4.472675     -0.658775      0.657771
  C       3.197411     -0.464764      0.291271
  C       2.811015      0.231043     -0.859483
  C       1.453177      0.370822     -1.145297
  O       0.983888      1.037970     -2.218614
  C       1.901686      1.606408     -3.165749
  C       0.479080     -0.197074     -0.286722
  S      -1.203773      0.026194     -0.800779
  C      -2.049488      1.172055      0.305541
  C      -2.249871      0.941169      1.668467
  C      -2.941741      1.882771      2.420303
  C      -3.420818      3.043221      1.806872
  Cl     -4.287088      4.215807      2.756716
  C      -3.217346      3.275085      0.447570
  C      -2.528530      2.332226     -0.309130
  C      -2.068108     -1.576364     -0.561647
  C      -3.428159     -1.644778     -1.292766
  O      -2.930015     -2.659286     -2.189659
  C      -1.628171     -2.662744     -1.567425
  C       0.895899     -0.882184      0.884146
  O      -0.084344     -1.385236      1.673527
  C       0.281932     -2.112236      2.860781
  C       2.243987     -1.017375      1.162714
  H       5.488820      0.948049     -0.211096
  H       6.454245     -0.435027      0.362710
  H       5.522167     -0.584317     -1.148405
  H       3.549224      0.661139     -1.516524
  H       2.523337      0.829686     -3.618074
  H       1.277834      2.065412     -3.929024
  H       2.525113      2.368985     -2.692590
  H      -1.864850      0.048789      2.141751
  H      -3.110699      1.721771      3.477457
  H      -3.596442      4.177786     -0.013954
  H      -2.370566      2.501858     -1.367661
  H      -2.053347     -1.848737      0.486736
  H      -4.248515     -2.008371     -0.668896
  H      -3.743462     -0.744217     -1.827970
  H      -1.389349     -3.624725     -1.106877
  H      -0.837309     -2.383866     -2.269960
  H      -0.657602     -2.416175      3.317861
  H       0.869438     -2.997405      2.606853
  H       0.837700     -1.472553      3.550092
  H       2.600775     -1.539910      2.037698
44
Coordinates from ORCA-job file E -1856.515719345218
  C       5.545385     -0.148077     -0.153944
  O       4.480116     -0.673013      0.650495
  C       3.204040     -0.474358      0.290156
  C       2.814166      0.235030     -0.851020
  C       1.455384      0.377504     -1.130799
  O       0.982543      1.057542     -2.194182
  C       1.897301      1.633479     -3.139963
  C       0.483594     -0.200429     -0.276168
  S      -1.199411      0.023979     -0.790830
  C      -2.049976      1.180548      0.302110
  C      -2.234521      0.974255      1.671172
  C      -2.933478      1.921081      2.409948
  C      -3.435650      3.061355      1.777477
  Cl     -4.311527      4.239656      2.711346
  C      -3.246929      3.269025      0.412230
  C      -2.550414      2.321288     -0.331350
  C      -2.072761     -1.575461     -0.548199
  C      -3.430499     -1.638328     -1.283203
  O      -2.934154     -2.656093     -2.177578
  C      -1.635683     -2.667690     -1.548120
  C       0.904118     -0.898181      0.886131
  O      -0.072758     -1.411165      1.673593
  C       0.299452     -2.157417      2.847401
  C       2.253140     -1.036436      1.158421
  H       5.494171      0.942906     -0.203924
  H       6.460720     -0.447183      0.350818
  H       5.523101     -0.578879     -1.158548
  H       3.550101      0.673469     -1.505120
  H       2.516532      0.860082     -3.601085
  H       1.270636      2.099352     -3.896691
  H       2.522851      2.391569     -2.662538
  H      -1.831970      0.097607      2.158662
  H      -3.090247      1.779681      3.471785
  H      -3.642794      4.156947     -0.063646
  H      -2.402778      2.472551     -1.394132
  H      -2.060712     -1.839956      0.501990
  H      -4.254686     -1.997261     -0.661654
  H      -3.740781     -0.737119     -1.820195
  H      -1.406457     -3.630304     -1.083975
  H      -0.838642     -2.397434     -2.246994
  H      -0.637998     -2.467894      3.304272
  H       0.885080     -3.038595      2.576097
  H       0.859233     -1.529055      3.543744
  H       2.613360     -1.568779      2.026010
44
Coordinates from ORCA-job file E -1856.515739921295
  C       5.549443     -0.161024     -0.162072
  O       4.484906     -0.685933      0.643406
  C       3.208558     -0.481035      0.287865
  C       2.818154      0.236509     -0.848110
  C       1.459131      0.384633     -1.123433
  O       0.985834      1.072621     -2.181289
  C       1.899699      1.646437     -3.129114
  C       0.487679     -0.195181     -0.269687
  S      -1.194748      0.028513     -0.785349
  C      -2.051360      1.187136      0.300639
  C      -2.226257      0.990941      1.672545
  C      -2.933618      1.935964      2.405769
  C      -3.453940      3.063442      1.764997
  Cl     -4.341499      4.238453      2.692071
  C      -3.273211      3.261489      0.397294
  C      -2.567355      2.316200     -0.340752
  C      -2.072417     -1.570602     -0.538970
  C      -3.426484     -1.631475     -1.279622
  O      -2.927060     -2.648505     -2.173105
  C      -1.634198     -2.667314     -1.532317
  C       0.908573     -0.900090      0.887815
  O      -0.067982     -1.413173      1.676180
  C       0.304753     -2.174586      2.840166
  C       2.257925     -1.044052      1.155824
  H       5.502269      0.930406     -0.206175
  H       6.465515     -0.466236      0.337676
  H       5.521764     -0.586567     -1.168807
  H       3.553647      0.677272     -1.501282
  H       2.515055      0.871370     -3.592655
  H       1.272540      2.115297     -3.883606
  H       2.528967      2.402098     -2.652661
  H      -1.811331      0.122956      2.165416
  H      -3.083056      1.802883      3.469751
  H      -3.681281      4.140659     -0.084472
  H      -2.423610      2.461257     -1.404920
  H      -2.063704     -1.826154      0.513668
  H      -4.253520     -1.990634     -0.661825
  H      -3.734582     -0.729652     -1.816815
  H      -1.415652     -3.630548     -1.064078
  H      -0.829096     -2.404505     -2.224761
  H      -0.632561     -2.485230      3.297128
  H       0.884911     -3.055512      2.556510
  H       0.870420     -1.557031      3.541406
  H       2.618977     -1.581698      2.019753
44
Coordinates from ORCA-job file E -1856.515763319559
  C       5.552006     -0.170934     -0.166636
  O       4.487311     -0.697086      0.637674
  C       3.210954     -0.487499      0.284967
  C       2.820906      0.237314     -0.846705
  C       1.461917      0.390679     -1.119142
  O       0.988893      1.086679     -2.171645
  C       1.902238      1.658491     -3.120960
  C       0.490161     -0.190534     -0.266575
  S      -1.191431      0.032891     -0.782556
  C      -2.052702      1.192681      0.297678
  C      -2.214989      1.005827      1.672619
  C      -2.927690      1.949068      2.402960
  C      -3.465973      3.064806      1.756403
  Cl     -4.361339      4.236681      2.680014
  C      -3.296949      3.253675      0.385996
  C      -2.584858      2.310753     -0.349272
  C      -2.073757     -1.565672     -0.529178
  C      -3.421918     -1.626112     -1.279501
  O      -2.914860     -2.640260     -2.172073
  C      -1.631655     -2.668844     -1.512370
  C       0.910626     -0.901818      0.886806
  O      -0.066067     -1.413868      1.675862
  C       0.306379     -2.189284      2.830578
  C       2.260002     -1.051382      1.151914
  H       5.508258      0.920898     -0.204349
  H       6.468237     -0.481736      0.329402
  H       5.521178     -0.590542     -1.175793
  H       3.556426      0.680910     -1.497937
  H       2.515464      0.882261     -3.585388
  H       1.275122      2.128815     -3.874610
  H       2.533636      2.413138     -2.645593
  H      -1.786539      0.146303      2.168893
  H      -3.066902      1.823913      3.469300
  H      -3.717608      4.124622     -0.099864
  H      -2.447567      2.450283     -1.415022
  H      -2.070890     -1.808506      0.526518
  H      -4.252256     -1.988414     -0.667762
  H      -3.728665     -0.723788     -1.816499
  H      -1.429667     -3.632478     -1.037265
  H      -0.813848     -2.416882     -2.193786
  H      -0.630994     -2.502479      3.285658
  H       0.884070     -3.068251      2.535894
  H       0.874656     -1.581284      3.538041
  H       2.620883     -1.593236      2.013303
44
Coordinates from ORCA-job file E -1856.515788392443
  C       5.551811     -0.174610     -0.167547
  O       4.486725     -0.702189      0.635042
  C       3.210448     -0.490168      0.283501
  C       2.820948      0.238634     -0.845877
  C       1.462142      0.394803     -1.117371
  O       0.989531      1.094936     -2.167138
  C       1.902769      1.665022     -3.117392
  C       0.489868     -0.187940     -0.266264
  S      -1.191028      0.035753     -0.782190
  C      -2.053237      1.196556      0.295218
  C      -2.202702      1.017211      1.672792
  C      -2.916410      1.959650      2.403029
  C      -3.468279      3.067262      1.753867
  Cl     -4.364720      4.238299      2.677537
  C      -3.311499      3.248962      0.381117
  C      -2.597972      2.307019     -0.354132
  C      -2.076949     -1.562002     -0.522015
  C      -3.417301     -1.624622     -1.285665
  O      -2.897760     -2.633628     -2.177098
  C      -1.627143     -2.671523     -1.493762
  C       0.909842     -0.903109      0.884760
  O      -0.067193     -1.415655      1.673112
  C       0.304233     -2.201011      2.821251
  C       2.259153     -1.055488      1.149021
  H       5.510047      0.917473     -0.200745
  H       6.467907     -0.488903      0.326582
  H       5.519940     -0.589884     -1.178478
  H       3.556715      0.684267     -1.495465
  H       2.515913      0.888193     -3.580911
  H       1.275970      2.134702     -3.871729
  H       2.534414      2.420292     -2.643215
  H      -1.763571      0.163752      2.170317
  H      -3.045620      1.840363      3.471301
  H      -3.742098      4.113973     -0.106646
  H      -2.469108      2.441756     -1.421556
  H      -2.082595     -1.792773      0.536314
  H      -4.250909     -1.993289     -0.681996
  H      -3.724116     -0.722168     -1.822189
  H      -1.443744     -3.635101     -1.010778
  H      -0.794414     -2.430627     -2.160796
  H      -0.633436     -2.518722      3.272598
  H       0.883035     -3.076814      2.519456
  H       0.871165     -1.599092      3.535024
  H       2.619428     -1.599762      2.009117
44
Coordinates from ORCA-job file E -1856.515837157688
  C       5.548094     -0.171582     -0.164240
  O       4.482595     -0.705076      0.633414
  C       3.206382     -0.492960      0.281597
  C       2.817357      0.241310     -0.844390
  C       1.458816      0.398518     -1.116182
  O       0.986359      1.105172     -2.161457
  C       1.899338      1.677302     -3.110486
  C       0.485947     -0.188885     -0.268660
  S      -1.194150      0.036374     -0.783901
  C      -2.052284      1.201865      0.290221
  C      -2.176499      1.038025      1.672477
  C      -2.886042      1.982533      2.403744
  C      -3.458664      3.077561      1.751033
  Cl     -4.349045      4.252087      2.676168
  C      -3.326802      3.244264      0.373877
  C      -2.616948      2.300276     -0.362423
  C      -2.086672     -1.558492     -0.510718
  C      -3.410351     -1.628288     -1.302276
  O      -2.862952     -2.626015     -2.190142
  C      -1.619718     -2.680474     -1.458994
  C       0.905664     -0.909827      0.878776
  O      -0.071687     -1.425834      1.664456
  C       0.298402     -2.225489      2.802796
  C       2.254879     -1.063221      1.143486
  H       5.505911      0.920719     -0.190249
  H       6.463950     -0.488475      0.328735
  H       5.518069     -0.579892     -1.178079
  H       3.553329      0.692037     -1.490255
  H       2.514679      0.902255     -3.574046
  H       1.272812      2.146553     -3.865338
  H       2.529146      2.433569     -2.635292
  H      -1.720730      0.194227      2.171794
  H      -2.995780      1.874888      3.475420
  H      -3.772858      4.099830     -0.116659
  H      -2.506286      2.424319     -1.433202
  H      -2.110993     -1.767507      0.551706
  H      -4.249515     -2.011491     -0.715139
  H      -3.719080     -0.726528     -1.838393
  H      -1.473392     -3.642846     -0.960646
  H      -0.757890     -2.461372     -2.095526
  H      -0.639593     -2.552404      3.246864
  H       0.881454     -3.094951      2.491123
  H       0.860749     -1.631660      3.527023
  H       2.614200     -1.610617      2.001983
44
Coordinates from ORCA-job file E -1856.515900698298
  C       5.540430     -0.159529     -0.154416
  O       4.474730     -0.704974      0.634407
  C       3.198528     -0.494874      0.281057
  C       2.809584      0.247194     -0.839695
  C       1.451245      0.402552     -1.113172
  O       0.978336      1.117486     -2.152517
  C       1.890909      1.698034     -3.096663
  C       0.478060     -0.195084     -0.273001
  S      -1.201298      0.032464     -0.788472
  C      -2.048498      1.208419      0.281616
  C      -2.129879      1.073012      1.670299
  C      -2.828736      2.024272      2.402645
  C      -3.433484      3.098723      1.744462
  Cl     -4.308995      4.283278      2.671050
  C      -3.344521      3.237517      0.360877
  C      -2.644643      2.286773     -0.376374
  C      -2.103517     -1.556500     -0.496362
  C      -3.402408     -1.638696     -1.326992
  O      -2.812968     -2.617593     -2.209324
  C      -1.613403     -2.696317     -1.410317
  C       0.897933     -0.924608      0.868845
  O      -0.079590     -1.450085      1.648129
  C       0.289554     -2.267772      2.773571
  C       2.247066     -1.075743      1.135774
  H       5.494495      0.932870     -0.169441
  H       6.456046     -0.478045      0.338023
  H       5.515348     -0.557281     -1.172589
  H       3.545525      0.706456     -1.479597
  H       2.510869      0.928277     -3.562846
  H       1.264378      2.168530     -3.850740
  H       2.516473      2.454602     -2.616235
  H      -1.649054      0.244925      2.172878
  H      -2.905450      1.938058      3.479111
  H      -3.814534      4.077589     -0.134056
  H      -2.565765      2.390383     -1.452164
  H      -2.155006     -1.735839      0.570316
  H      -4.246870     -2.045554     -0.763126
  H      -3.717282     -0.738769     -1.861893
  H      -1.522843     -3.655715     -0.892515
  H      -0.711723     -2.510226     -1.999889
  H      -0.648540     -2.608409      3.207015
  H       0.879918     -3.127668      2.449491
  H       0.844365     -1.683783      3.511626
  H       2.605414     -1.628549      1.991202
44
Coordinates from ORCA-job file E -1856.515928488543
  C       5.530197     -0.133639     -0.129401
  O       4.464189     -0.701514      0.642829
  C       3.188379     -0.497625      0.284024
  C       2.799799      0.255772     -0.829022
  C       1.441753      0.404598     -1.107616
  O       0.968388      1.131295     -2.138646
  C       1.881155      1.731571     -3.070246
  C       0.468229     -0.209919     -0.280312
  S      -1.210427      0.020267     -0.799061
  C      -2.038935      1.214218      0.265176
  C      -2.047633      1.129556      1.660151
  C      -2.728531      2.093546      2.392257
  C      -3.389291      3.130211      1.727031
  Cl     -4.240680      4.332467      2.653369
  C      -3.374613      3.217884      0.336502
  C      -2.691124      2.254885     -0.400309
  C      -2.126041     -1.558184     -0.481012
  C      -3.401740     -1.651452     -1.345684
  O      -2.771130     -2.605966     -2.226310
  C      -1.621817     -2.718536     -1.360068
  C       0.887870     -0.951995      0.853383
  O      -0.090006     -1.493691      1.621468
  C       0.278609     -2.331550      2.731995
  C       2.236673     -1.096880      1.125610
  H       5.473797      0.958403     -0.127767
  H       6.445177     -0.451075      0.364957
  H       5.516649     -0.515452     -1.153865
  H       3.535738      0.728919     -1.458768
  H       2.509051      0.973051     -3.544152
  H       1.254803      2.207939     -3.820748
  H       2.498907      2.485720     -2.576058
  H      -1.524940      0.329770      2.167285
  H      -2.748840      2.046384      3.473652
  H      -3.886836      4.029357     -0.164224
  H      -2.667023      2.320847     -1.481728
  H      -2.201722     -1.705739      0.588907
  H      -4.246053     -2.086770     -0.802310
  H      -3.729039     -0.753282     -1.875233
  H      -1.597958     -3.673635     -0.826103
  H      -0.681403     -2.575066     -1.898151
  H      -0.659403     -2.687886      3.152805
  H       0.877457     -3.180117      2.393992
  H       0.824809     -1.758840      3.485266
  H       2.593754     -1.658050      1.976134
44
Coordinates from ORCA-job file E -1856.515946104487
  C       5.527707     -0.121014     -0.113645
  O       4.461163     -0.695373      0.653396
  C       3.185960     -0.495277      0.290193
  C       2.798357      0.257531     -0.823489
  C       1.440554      0.401275     -1.106475
  O       0.967839      1.125275     -2.139926
  C       1.881801      1.733734     -3.065301
  C       0.466576     -0.216090     -0.282529
  S      -1.212233      0.012091     -0.806284
  C      -2.034071      1.210081      0.259623
  C      -2.016184      1.141429      1.655017
  C      -2.688737      2.110108      2.388629
  C      -3.370080      3.133762      1.724069
  Cl     -4.210333      4.342349      2.652313
  C      -3.384886      3.203608      0.332380
  C      -2.708464      2.236721     -0.405782
  C      -2.127006     -1.564469     -0.488137
  C      -3.411647     -1.650143     -1.340465
  O      -2.790572     -2.596393     -2.235898
  C      -1.634906     -2.720859     -1.379979
  C       0.885038     -0.958238      0.851629
  O      -0.093636     -1.503932      1.616080
  C       0.274354     -2.336060      2.731318
  C       2.233414     -1.098980      1.127698
  H       5.465159      0.970667     -0.111267
  H       6.441954     -0.434114      0.384753
  H       5.520577     -0.502107     -1.138410
  H       3.534891      0.731841     -1.451640
  H       2.512392      0.979332     -3.542217
  H       1.255920      2.213062     -3.814259
  H       2.496543      2.485912     -2.564560
  H      -1.480631      0.350298      2.162195
  H      -2.687857      2.075969      3.470688
  H      -3.913107      4.005009     -0.167939
  H      -2.705506      2.289753     -1.488206
  H      -2.193526     -1.721365      0.581236
  H      -4.248842     -2.091392     -0.790787
  H      -3.746384     -0.747984     -1.858429
  H      -1.612430     -3.679238     -0.851692
  H      -0.698057     -2.579863     -1.924765
  H      -0.664042     -2.690150      3.153098
  H       0.873148     -3.186584      2.398106
  H       0.820332     -1.759375      3.481636
  H       2.589658     -1.661007      1.978026
44
Coordinates from ORCA-job file E -1856.515953467155
  C       5.531868     -0.118176     -0.108774
  O       4.465049     -0.689255      0.661220
  C       3.190312     -0.491815      0.295182
  C       2.803138      0.253215     -0.823910
  C       1.445227      0.392850     -1.109350
  O       0.973231      1.107693     -2.149680
  C       1.888431      1.721064     -3.071034
  C       0.471361     -0.218465     -0.281476
  S      -1.208420      0.004913     -0.810102
  C      -2.033445      1.198603      0.260639
  C      -2.030595      1.117252      1.654919
  C      -2.704263      2.084846      2.389510
  C      -3.372081      3.118244      1.726774
  Cl     -4.213328      4.324949      2.656543
  C      -3.372366      3.199873      0.335440
  C      -2.694649      2.234659     -0.403587
  C      -2.114130     -1.574974     -0.507920
  C      -3.429872     -1.641690     -1.313641
  O      -2.857570     -2.597163     -2.230479
  C      -1.653747     -2.711860     -1.442668
  C       0.888948     -0.952470      0.858422
  O      -0.089909     -1.492314      1.626809
  C       0.278725     -2.300627      2.759759
  C       2.237174     -1.090651      1.135697
  H       5.465571      0.973181     -0.115886
  H       6.445701     -0.424375      0.394511
  H       5.527472     -0.508580     -1.129986
  H       3.539971      0.721861     -1.455878
  H       2.519281      0.968387     -3.550353
  H       1.262652      2.203210     -3.818194
  H       2.502286      2.470895     -2.565977
  H      -1.509034      0.317056      2.162006
  H      -2.715057      2.041819      3.471207
  H      -3.890318      4.008967     -0.163203
  H      -2.679211      2.297033     -1.485393
  H      -2.147854     -1.767538      0.557304
  H      -4.256332     -2.067480     -0.736739
  H      -3.765418     -0.732925     -1.819972
  H      -1.582626     -3.677702     -0.933257
  H      -0.752332     -2.543377     -2.037550
  H      -0.660031     -2.637891      3.194169
  H       0.869257     -3.163278      2.443267
  H       0.833139     -1.710169      3.492768
  H       2.593994     -1.647991      1.988865
44
Coordinates from ORCA-job file E -1856.515952645770
  C       5.529182     -0.123364     -0.108960
  O       4.462076     -0.698648      0.657329
  C       3.187332     -0.497257      0.293503
  C       2.800340      0.256132     -0.820095
  C       1.442450      0.399031     -1.103876
  O       0.970372      1.122075     -2.138324
  C       1.885179      1.739263     -3.057371
  C       0.468345     -0.217364     -0.279899
  S      -1.210696      0.006927     -0.809115
  C      -2.034412      1.205529      0.256662
  C      -2.001491      1.146929      1.651846
  C      -2.673005      2.117333      2.384628
  C      -3.368166      3.130933      1.719368
  Cl     -4.206341      4.341460      2.647043
  C      -3.397642      3.190278      0.327298
  C      -2.721430      2.222731     -0.410226
  C      -2.122145     -1.570238     -0.497788
  C      -3.420945     -1.647168     -1.329290
  O      -2.822612     -2.598514     -2.234119
  C      -1.644686     -2.718705     -1.408736
  C       0.885785     -0.959668      0.854440
  O      -0.093056     -1.504289      1.619660
  C       0.275254     -2.327921      2.741555
  C       2.234040     -1.100938      1.130296
  H       5.464468      0.968124     -0.107887
  H       6.442989     -0.434491      0.391382
  H       5.523768     -0.506081     -1.133083
  H       3.537141      0.729473     -1.448598
  H       2.516157      0.988826     -3.540001
  H       1.259366      2.224631     -3.802430
  H       2.498991      2.487182     -2.549339
  H      -1.458406      0.361880      2.160201
  H      -2.660450      2.092191      3.466880
  H      -3.935684      3.984902     -0.173338
  H      -2.726503      2.269578     -1.492911
  H      -2.174103     -1.742995      0.569965
  H      -4.253724     -2.080218     -0.766718
  H      -3.756177     -0.742327     -1.842516
  H      -1.600479     -3.680179     -0.887806
  H      -0.723413     -2.566501     -1.976755
  H      -0.663616     -2.670825      3.171290
  H       0.865975     -3.186054      2.413401
  H       0.829519     -1.747626      3.482806
  H       2.590650     -1.664239      1.979627
44
Coordinates from ORCA-job file E -1856.515955546671
  C       5.529114     -0.126552     -0.111803
  O       4.461914     -0.701084      0.654923
  C       3.187164     -0.498437      0.291890
  C       2.800316      0.255730     -0.821268
  C       1.442427      0.400015     -1.104277
  O       0.970431      1.123574     -2.138325
  C       1.885191      1.740848     -3.057317
  C       0.468245     -0.215922     -0.279989
  S      -1.210647      0.008314     -0.809105
  C      -2.035346      1.206189      0.256809
  C      -2.005455      1.144548      1.651951
  C      -2.677420      2.114298      2.385238
  C      -3.369953      3.130034      1.720558
  Cl     -4.209157      4.339359      2.648924
  C      -3.396374      3.192255      0.328565
  C      -2.719695      2.225456     -0.409541
  C      -2.121762     -1.569144     -0.497321
  C      -3.418806     -1.649084     -1.331273
  O      -2.819109     -2.604816     -2.230627
  C      -1.641137     -2.719281     -1.404500
  C       0.885450     -0.958564      0.854126
  O      -0.093542     -1.501850      1.620046
  C       0.274378     -2.325046      2.742393
  C       2.233757     -1.101255      1.129181
  H       5.465337      0.964992     -0.110489
  H       6.442942     -0.438514      0.387985
  H       5.522826     -0.509115     -1.135984
  H       3.537172      0.728832     -1.449912
  H       2.515563      0.990436     -3.540769
  H       1.259396      2.227181     -3.801770
  H       2.499618      2.488094     -2.549010
  H      -1.464530      0.357649      2.159747
  H      -2.667142      2.087001      3.467465
  H      -3.932488      3.988517     -0.171540
  H      -2.722281      2.274654     -1.492126
  H      -2.175956     -1.739690      0.570700
  H      -4.253618     -2.078603     -0.769064
  H      -3.751776     -0.746110     -1.849303
  H      -1.594029     -3.679240     -0.881102
  H      -0.720189     -2.565692     -1.972743
  H      -0.664704     -2.666399      3.172888
  H       0.863936     -3.184091      2.414517
  H       0.829698     -1.744875      3.482941
  H       2.590440     -1.664811      1.978309
44
Coordinates from ORCA-job file E -1856.515948886840
  C       5.528364     -0.131132     -0.113728
  O       4.460743     -0.707374      0.651180
  C       3.186108     -0.502125      0.289262
  C       2.799787      0.255893     -0.821534
  C       1.441969      0.402450     -1.103668
  O       0.970215      1.129359     -2.135348
  C       1.885008      1.750948     -3.051327
  C       0.467487     -0.214834     -0.280692
  S      -1.210964      0.009333     -0.810712
  C      -2.035867      1.208428      0.254033
  C      -1.999619      1.149946      1.649154
  C      -2.671108      2.119778      2.382865
  C      -3.369368      3.131811      1.718648
  Cl     -4.208240      4.340950      2.647692
  C      -3.401920      3.190602      0.326645
  C      -2.725475      2.224064     -0.412106
  C      -2.123150     -1.567133     -0.494928
  C      -3.415871     -1.653581     -1.334862
  O      -2.813172     -2.619570     -2.221151
  C      -1.636867     -2.723352     -1.391255
  C       0.883975     -0.960602      0.851435
  O      -0.095373     -1.503502      1.617079
  C       0.271765     -2.328127      2.738669
  C       2.232295     -1.106033      1.125296
  H       5.465220      0.960437     -0.109079
  H       6.442004     -0.445094      0.385162
  H       5.521859     -0.510690     -1.139026
  H       3.536815      0.730474     -1.448878
  H       2.514868      1.002821     -3.538968
  H       1.259336      2.241698     -3.792987
  H       2.499923      2.495212     -2.539211
  H      -1.454962      0.365194      2.156335
  H      -2.655911      2.095386      3.465110
  H      -3.942450      3.984200     -0.172948
  H      -2.732272      2.271095     -1.494765
  H      -2.183103     -1.730312      0.573925
  H      -4.255267     -2.074950     -0.773380
  H      -3.743738     -0.755165     -1.864081
  H      -1.587095     -3.679125     -0.860596
  H      -0.715202     -2.570451     -1.958626
  H      -0.667775     -2.666986      3.170104
  H       0.858787     -3.188444      2.409550
  H       0.829448     -1.749759      3.478842
  H       2.588990     -1.671937      1.972869
