44
Coordinates from ORCA-job file
  C   5.52836368902593     -0.13113158493881     -0.11372783817623
  O   4.46074316874978     -0.70737421971433      0.65118006274751
  C   3.18610832821444     -0.50212472058751      0.28926243212153
  C   2.79978743268197      0.25589321873911     -0.82153430569433
  C   1.44196913252231      0.40244997770223     -1.10366840796497
  O   0.97021452844109      1.12935894422510     -2.13534801563438
  C   1.88500793359401      1.75094795850772     -3.05132701994930
  C   0.46748736146992     -0.21483428754213     -0.28069177213363
  S   -1.21096416232853      0.00933293305811     -0.81071195689800
  C   -2.03586680848278      1.20842811553103      0.25403326624168
  C   -1.99961921223447      1.14994621261873      1.64915398825210
  C   -2.67110780632190      2.11977840351396      2.38286529594570
  C   -3.36936795488538      3.13181087851292      1.71864845754741
  Cl  -4.20823964008177      4.34094992658058      2.64769179861975
  C   -3.40192017730436      3.19060173279646      0.32664513462534
  C   -2.72547516973900      2.22406357372334     -0.41210614924333
  C   -2.12314987612719     -1.56713338436024     -0.49492843880612
  C   -3.41587135979136     -1.65358131054092     -1.33486213475982
  O   -2.81317207791466     -2.61956954198700     -2.22115125384042
  C   -1.63686692305649     -2.72335156964862     -1.39125545898233
  C   0.88397477829593     -0.96060177837831      0.85143528128035
  O   -0.09537272523966     -1.50350248767899      1.61707862305203
  C   0.27176519166797     -2.32812731074538      2.73866863159209
  C   2.23229513105042     -1.10603298430476      1.12529615424653
  H   5.46521987679340      0.96043700083584     -0.10907890158093
  H   6.44200405975151     -0.44509356859798      0.38516202753147
  H   5.52185931719088     -0.51069017638490     -1.13902574497541
  H   3.53681540658745      0.73047413835058     -1.44887775651576
  H   2.51486818708570      1.00282118701859     -3.53896791256298
  H   1.25933643287201      2.24169787652058     -3.79298696060699
  H   2.49992349371043      2.49521184782795     -2.53921063078111
  H   -1.45496150950444      0.36519427095426      2.15633470552641
  H   -2.65591103667100      2.09538625562765      3.46511023477440
  H   -3.94244967907449      3.98419966087243     -0.17294773632461
  H   -2.73227164470201      2.27109464494465     -1.49476477912220
  H   -2.18310326360514     -1.73031229053397      0.57392543383034
  H   -4.25526677120695     -2.07494967882443     -0.77337999706721
  H   -3.74373819315193     -0.75516497940528     -1.86408056833978
  H   -1.58709517954618     -3.67912537120572     -0.86059592715688
  H   -0.71520221166976     -2.57045119252548     -1.95862647552290
  H   -0.66777538794304     -2.66698636052389      3.17010435663723
  H   0.85878699568429     -3.18844393986999      2.40954974397201
  H   0.82944798448121     -1.74975906085700      3.47884178334811
  H   2.58899034071184     -1.67193695930617      1.97286873074762
