21
Coordinates from ORCA-job file
  C   -2.31752422272749     -0.19338062721508      0.16354362529908
  C   -1.36982818324748      0.41575255969552      1.21221347266292
  N   -0.08759718280639     -0.28403150982472      1.09884267772265
  C   0.60546569943586      0.04404894271060     -0.13305450504319
  C   1.79433276719097     -0.88287528926354     -0.48350095038672
  N   2.60289673780481      0.30946108537633     -0.83221165646415
  C   1.62097612680444      1.21670753795024     -0.19326931540502
  O   -0.33617727622899      0.20579880434484     -1.17213832978676
  C   -1.46818763035600     -0.65225355483042     -1.03310231803564
  H   -2.85419536020879     -1.05307388050703      0.58174311453388
  H   -3.05980880789971      0.55034761259143     -0.14710870079814
  H   -1.26769115814032      1.49983502948339      1.04294630461212
  H   -1.75858745336386      0.27274335928665      2.22483936398699
  H   0.51274763396610     -0.12785550295189      1.89930789788070
  H   1.62725148357131     -1.57588543526831     -1.31506086511797
  H   2.14673986229205     -1.43826563624185      0.39754720948411
  H   3.53199422330373      0.32890425012781     -0.42798126029695
  H   1.32190563925599      2.06572340866975     -0.81597478969696
  H   1.90460120296349      1.56946259770777      0.80986181934760
  H   -2.01377743013974     -0.58110141788981     -1.97741075054870
  H   -1.13523667146998     -1.69006233395167     -0.89983204394984
