21
Coordinates from ORCA-job file E -420.729133051589
  C      -2.258200     -0.215500      0.200700
  C      -1.311500      0.388800      1.244600
  N       0.017600     -0.211400      1.120000
  C       0.578900      0.067800     -0.224900
  C       1.743700     -0.840200     -0.580000
  N       2.704500      0.265800     -0.596100
  C       1.613900      1.185700     -0.265800
  O      -0.377300      0.187300     -1.273700
  C      -1.474000     -0.670400     -1.038300
  H      -2.792400     -1.089400      0.633000
  H      -3.016200      0.544700     -0.088700
  H      -1.243400      1.491700      1.103500
  H      -1.713300      0.199100      2.263600
  H       0.631900      0.170300      1.876600
  H       1.647400     -1.293000     -1.591300
  H       1.977100     -1.592800      0.208300
  H       3.325900      0.175700      0.242900
  H       1.441500      1.900900     -1.100000
  H       1.777200      1.706700      0.705000
  H      -2.144400     -0.648600     -1.923200
  H      -1.128600     -1.723200     -0.916000
21
Coordinates from ORCA-job file E -420.740455378540
  C      -2.285769     -0.218987      0.208382
  C      -1.328908      0.390967      1.243462
  N      -0.003282     -0.220813      1.094376
  C       0.593427      0.069213     -0.211415
  C       1.765309     -0.874249     -0.568590
  N       2.726793      0.262851     -0.586259
  C       1.629180      1.216615     -0.273979
  O      -0.375786      0.203304     -1.224920
  C      -1.484691     -0.662853     -1.020526
  H      -2.813222     -1.086375      0.625887
  H      -3.037968      0.528773     -0.070943
  H      -1.279370      1.485409      1.109761
  H      -1.696992      0.198005      2.257097
  H       0.609805      0.128498      1.822169
  H       1.663265     -1.334424     -1.557867
  H       1.981051     -1.630019      0.196457
  H       3.352835      0.187851      0.208606
  H       1.447334      1.918850     -1.094847
  H       1.771761      1.760110      0.670324
  H      -2.102694     -0.623776     -1.922641
  H      -1.131779     -1.698950     -0.904334
21
Coordinates from ORCA-job file E -420.742263214543
  C      -2.300331     -0.200473      0.212017
  C      -1.316029      0.404020      1.227740
  N      -0.021633     -0.268096      1.068820
  C       0.600389      0.048078     -0.214661
  C       1.793949     -0.877951     -0.565739
  N       2.727595      0.285692     -0.565447
  C       1.608711      1.224060     -0.269914
  O      -0.383585      0.190409     -1.210390
  C      -1.502894     -0.669921     -1.011410
  H      -2.836203     -1.052368      0.646111
  H      -3.042611      0.552676     -0.074040
  H      -1.239865      1.494053      1.080633
  H      -1.666781      0.231827      2.249555
  H       0.609437      0.013408      1.811913
  H       1.706953     -1.342688     -1.553142
  H       2.006441     -1.642680      0.189996
  H       3.377768      0.229125      0.210890
  H       1.416978      1.920266     -1.091521
  H       1.713334      1.783410      0.668829
  H      -2.094012     -0.618874     -1.928940
  H      -1.157309     -1.703974     -0.881100
21
Coordinates from ORCA-job file E -420.742794365742
  C      -2.304671     -0.169441      0.211063
  C      -1.294005      0.410614      1.217400
  N      -0.034009     -0.320266      1.044591
  C       0.601642      0.021942     -0.222369
  C       1.823618     -0.871239     -0.558391
  N       2.721600      0.318540     -0.549596
  C       1.577256      1.227150     -0.262855
  O      -0.382250      0.150843     -1.223008
  C      -1.522319     -0.680425     -1.007631
  H      -2.861811     -1.000412      0.658980
  H      -3.026317      0.600694     -0.082953
  H      -1.174509      1.495068      1.056965
  H      -1.640091      0.263548      2.244717
  H       0.608875     -0.118765      1.802288
  H       1.759856     -1.341742     -1.544960
  H       2.043012     -1.632856      0.199699
  H       3.389102      0.284352      0.211895
  H       1.376458      1.918893     -1.086387
  H       1.649205      1.789387      0.677606
  H      -2.108073     -0.626260     -1.928714
  H      -1.202271     -1.719624     -0.858140
21
Coordinates from ORCA-job file E -420.742629785783
  C      -2.305905     -0.210363      0.214108
  C      -1.327116      0.415151      1.227876
  N      -0.041460     -0.267757      1.057758
  C       0.603112      0.068858     -0.204626
  C       1.781107     -0.874912     -0.547262
  N       2.721810      0.279990     -0.571984
  C       1.624340      1.238878     -0.271614
  O      -0.390699      0.221125     -1.196329
  C      -1.496358     -0.667594     -1.010929
  H      -2.828983     -1.066045      0.657576
  H      -3.057584      0.529118     -0.081702
  H      -1.252281      1.499522      1.057170
  H      -1.668425      0.263634      2.256517
  H       0.596166     -0.121523      1.831073
  H       1.688913     -1.356202     -1.526369
  H       1.977406     -1.635113      0.217788
  H       3.433838      0.243746      0.147162
  H       1.430545      1.929093     -1.099151
  H       1.719746      1.815172      0.659176
  H      -2.074111     -0.609559     -1.936872
  H      -1.133762     -1.695218     -0.879166
21
Coordinates from ORCA-job file E -420.743016048157
  C      -2.309374     -0.182127      0.205717
  C      -1.313897      0.416048      1.218111
  N      -0.048836     -0.303625      1.049220
  C       0.604123      0.037948     -0.204194
  C       1.810714     -0.874255     -0.536937
  N       2.710014      0.311564     -0.607146
  C       1.594809      1.232940     -0.255631
  O      -0.377127      0.176407     -1.209612
  C      -1.510116     -0.672188     -1.013048
  H      -2.853275     -1.023543      0.650804
  H      -3.042802      0.575247     -0.091616
  H      -1.204801      1.498598      1.045341
  H      -1.661392      0.276860      2.246081
  H       0.587715     -0.169667      1.825832
  H       1.724276     -1.392474     -1.497096
  H       2.039270     -1.601874      0.252051
  H       3.445530      0.293837      0.088641
  H       1.374560      1.948452     -1.053315
  H       1.697484      1.771273      0.696831
  H      -2.086787     -0.610406     -1.939196
  H      -1.179789     -1.709015     -0.870636
21
Coordinates from ORCA-job file E -420.743184617737
  C      -2.311239     -0.166272      0.195766
  C      -1.312527      0.414864      1.214004
  N      -0.056621     -0.320729      1.049047
  C       0.604605      0.022809     -0.197338
  C       1.823771     -0.874239     -0.525240
  N       2.692268      0.328200     -0.650867
  C       1.580975      1.229201     -0.242589
  O      -0.365344      0.153633     -1.214972
  C      -1.512397     -0.673649     -1.015983
  H      -2.869917     -0.999819      0.637288
  H      -3.032013      0.601734     -0.105845
  H      -1.185540      1.496409      1.043232
  H      -1.667820      0.279954      2.239786
  H       0.575356     -0.197244      1.831007
  H       1.731753     -1.435045     -1.460765
  H       2.082029     -1.562627      0.290162
  H       3.466097      0.327321      0.002676
  H       1.334866      1.972687     -1.006320
  H       1.708533      1.728344      0.728101
  H      -2.086458     -0.610332     -1.943706
  H      -1.200076     -1.715201     -0.867242
21
Coordinates from ORCA-job file E -420.743309401365
  C      -2.313326     -0.158309      0.185728
  C      -1.318124      0.413711      1.212230
  N      -0.065256     -0.327770      1.053241
  C       0.605311      0.016212     -0.186291
  C       1.828974     -0.874828     -0.512211
  N       2.672108      0.336359     -0.699161
  C       1.577074      1.226450     -0.230089
  O      -0.355003      0.144339     -1.214055
  C      -1.509281     -0.673094     -1.019312
  H      -2.881889     -0.987942      0.621980
  H      -3.025866      0.615424     -0.120979
  H      -1.182874      1.494989      1.044868
  H      -1.681283      0.278894      2.235228
  H       0.561186     -0.213675      1.840860
  H       1.726876     -1.477523     -1.420265
  H       2.113871     -1.523417      0.327320
  H       3.487580      0.350485     -0.098547
  H       1.308084      1.997147     -0.958222
  H       1.736329      1.688010      0.754694
  H      -2.078232     -0.608672     -1.950096
  H      -1.205959     -1.716790     -0.866723
21
Coordinates from ORCA-job file E -420.743427447285
  C      -2.315363     -0.153755      0.175692
  C      -1.326563      0.412487      1.211340
  N      -0.073906     -0.330488      1.059862
  C       0.605981      0.012852     -0.173364
  C       1.831135     -0.875481     -0.499020
  N       2.648983      0.340461     -0.747732
  C       1.577414      1.223458     -0.217678
  O      -0.345015      0.140690     -1.210352
  C      -1.503711     -0.671524     -1.022809
  H      -2.891384     -0.981511      0.605730
  H      -3.021868      0.623550     -0.136058
  H      -1.187135      1.493950      1.048011
  H      -1.698044      0.275980      2.231113
  H       0.546216     -0.222337      1.853108
  H       1.717966     -1.518371     -1.377811
  H       2.142718     -1.483376      0.361878
  H       3.504461      0.368153     -0.205962
  H       1.288474      2.020670     -0.908723
  H       1.772345      1.647244      0.777967
  H      -2.066659     -0.606171     -1.957180
  H      -1.205746     -1.716479     -0.867814
21
Coordinates from ORCA-job file E -420.743525705102
  C      -2.317329     -0.152528      0.165586
  C      -1.337814      0.410930      1.211338
  N      -0.082256     -0.328824      1.069422
  C       0.606446      0.012500     -0.158425
  C       1.830311     -0.876088     -0.486273
  N       2.622957      0.340752     -0.795531
  C       1.581851      1.219913     -0.205467
  O      -0.335251      0.142314     -1.203853
  C      -1.495651     -0.668992     -1.026381
  H      -2.898698     -0.980414      0.588214
  H      -3.019806      0.626495     -0.151126
  H      -1.198295      1.493142      1.052923
  H      -1.718452      0.270717      2.227260
  H       0.530498     -0.221191      1.868292
  H       1.704675     -1.556872     -1.334501
  H       2.169749     -1.442471      0.392842
  H       3.515952      0.379786     -0.318368
  H       1.276332      2.043040     -0.858165
  H       1.816614      1.605252      0.797643
  H      -2.051818     -0.602954     -1.964803
  H      -1.199717     -1.714506     -0.870428
21
Coordinates from ORCA-job file E -420.743596871058
  C      -2.318410     -0.159150      0.158635
  C      -1.351031      0.409371      1.212672
  N      -0.086806     -0.318023      1.082430
  C       0.605703      0.018797     -0.144761
  C       1.821892     -0.877039     -0.480474
  N       2.603245      0.334182     -0.825740
  C       1.592406      1.216850     -0.196741
  O      -0.329782      0.154673     -1.194158
  C      -1.484863     -0.665892     -1.028783
  H      -2.899085     -0.991206      0.574207
  H      -3.022383      0.617162     -0.161692
  H      -1.219841      1.493184      1.058451
  H      -1.739893      0.263267      2.224751
  H       0.518590     -0.196702      1.884970
  H       1.680832     -1.579434     -1.309025
  H       2.182331     -1.416443      0.407495
  H       3.523752      0.375518     -0.403105
  H       1.279955      2.058848     -0.822408
  H       1.861667      1.573279      0.808779
  H      -2.035417     -0.601171     -1.970762
  H      -1.182559     -1.710073     -0.874541
21
Coordinates from ORCA-job file E -420.743638383110
  C      -2.318408     -0.167280      0.159290
  C      -1.356405      0.409941      1.213733
  N      -0.086773     -0.309036      1.086774
  C       0.605546      0.026294     -0.141587
  C       1.814072     -0.878227     -0.481257
  N       2.603654      0.327510     -0.826317
  C       1.600271      1.217431     -0.196616
  O      -0.331814      0.168420     -1.188177
  C      -1.479902     -0.663514     -1.029077
  H      -2.891841     -1.004601      0.574354
  H      -3.028967      0.603153     -0.160484
  H      -1.233718      1.494368      1.058578
  H      -1.745364      0.261694      2.225504
  H       0.517768     -0.179974      1.888813
  H       1.665796     -1.576971     -1.311578
  H       2.172228     -1.423106      0.404213
  H       3.527381      0.363626     -0.410601
  H       1.291551      2.060157     -0.823155
  H       1.872402      1.574959      0.807878
  H      -2.028598     -0.599332     -1.972171
  H      -1.168579     -1.705513     -0.877914
21
Coordinates from ORCA-job file E -420.743676627574
  C      -2.318002     -0.184046      0.160979
  C      -1.366622      0.412227      1.214632
  N      -0.087432     -0.291779      1.095175
  C       0.605685      0.040082     -0.135055
  C       1.799442     -0.881187     -0.482137
  N       2.602886      0.314545     -0.830324
  C       1.615445      1.218271     -0.195275
  O      -0.335297      0.195499     -1.176240
  C      -1.470361     -0.657460     -1.030604
  H      -2.873015     -1.033543      0.576249
  H      -3.044777      0.572149     -0.155973
  H      -1.259686      1.497174      1.054500
  H      -1.755488      0.262725      2.226296
  H       0.515019     -0.147085      1.896166
  H       1.637069     -1.574912     -1.313980
  H       2.153052     -1.435059      0.399430
  H       3.532239      0.340251     -0.427110
  H       1.313255      2.064005     -0.820959
  H       1.894391      1.575672      0.807613
  H      -2.015537     -0.592151     -1.975598
  H      -1.141965     -1.695378     -0.887584
21
Coordinates from ORCA-job file E -420.743679928757
  C      -2.317731     -0.187458      0.162390
  C      -1.367242      0.413198      1.214080
  N      -0.086730     -0.288851      1.096237
  C       0.605525      0.041687     -0.135207
  C       1.797394     -0.881787     -0.483819
  N       2.604796      0.312477     -0.827616
  C       1.617299      1.218089     -0.195442
  O      -0.336281      0.199114     -1.175119
  C      -1.469942     -0.655992     -1.031172
  H      -2.866742     -1.040271      0.578797
  H      -3.049626      0.564757     -0.152325
  H      -1.262393      1.497946      1.051092
  H      -1.755650      0.265494      2.226183
  H       0.515371     -0.138935      1.896587
  H       1.633613     -1.572506     -1.317939
  H       2.148745     -1.439130      0.396393
  H       3.532419      0.335236     -0.420215
  H       1.316976      2.063259     -0.822856
  H       1.895644      1.576534      0.807182
  H      -2.015615     -0.589151     -1.975772
  H      -1.139530     -1.693711     -0.891260
21
Coordinates from ORCA-job file E -420.743685525385
  C      -2.317583     -0.193669      0.163335
  C      -1.370326      0.415484      1.212464
  N      -0.087643     -0.283603      1.099342
  C       0.605570      0.044445     -0.132556
  C       1.793981     -0.882978     -0.483469
  N       2.602689      0.309067     -0.832628
  C       1.621579      1.216837     -0.193221
  O      -0.336141      0.206407     -1.171593
  C      -1.467798     -0.652250     -1.033067
  H      -2.854598     -1.053313      0.581203
  H      -3.059603      0.550206     -0.147578
  H      -1.268773      1.499674      1.043696
  H      -1.759222      0.271799      2.224949
  H       0.512594     -0.126404      1.899724
  H       1.626150     -1.575906     -1.314925
  H       2.146370     -1.438585      0.397450
  H       3.532335      0.328393     -0.429750
  H       1.322358      2.065883     -0.815806
  H       1.905634      1.569721      0.809776
  H      -2.012960     -0.581363     -1.977638
  H      -1.134312     -1.689844     -0.899508
21
Coordinates from ORCA-job file E -420.743685508866
  C      -2.317524     -0.193381      0.163544
  C      -1.369828      0.415753      1.212213
  N      -0.087597     -0.284032      1.098843
  C       0.605466      0.044049     -0.133055
  C       1.794333     -0.882875     -0.483501
  N       2.602897      0.309461     -0.832212
  C       1.620976      1.216708     -0.193269
  O      -0.336177      0.205799     -1.172138
  C      -1.468188     -0.652254     -1.033102
  H      -2.854195     -1.053074      0.581743
  H      -3.059809      0.550348     -0.147109
  H      -1.267691      1.499835      1.042946
  H      -1.758587      0.272743      2.224839
  H       0.512748     -0.127856      1.899308
  H       1.627251     -1.575885     -1.315061
  H       2.146740     -1.438266      0.397547
  H       3.531994      0.328904     -0.427981
  H       1.321906      2.065723     -0.815975
  H       1.904601      1.569463      0.809862
  H      -2.013777     -0.581101     -1.977411
  H      -1.135237     -1.690062     -0.899832
