60
Coordinates from ORCA-job file E -2653.433902359048
  C      -5.501000      0.738100      3.313000
  O      -4.577400     -0.338000      3.183000
  C      -3.686100     -0.495500      2.110500
  C      -3.623800      0.416000      1.042200
  C      -2.713500      0.220900     -0.013200
  O      -2.616400      1.125000     -1.083100
  C      -3.409800      2.297700     -1.230200
  C      -1.869100     -0.903000      0.004100
  S      -0.723100     -1.174500     -1.305700
  C      -1.446200     -1.845000     -2.756000
  C      -1.268700     -3.201700     -3.052900
  C      -1.840200     -3.747700     -4.206500
  C      -2.588300     -2.937900     -5.068600
  Cl     -3.304600     -3.622600     -6.515900
  C      -2.761600     -1.580300     -4.776000
  C      -2.190500     -1.033800     -3.622500
  C       0.394900      0.188800     -1.603200
  C       1.291600      0.443700     -0.403000
  N       2.497700     -0.015600     -1.101300
  S       3.600800      1.311000     -1.384500
  O       4.679300      0.869800     -2.333900
  O       2.881800      2.487200     -1.989300
  C       4.336300      1.782100      0.144500
  C       3.880800      2.913300      0.835800
  C       4.458000      3.270500      2.058100
  C       5.485300      2.490100      2.610300
  C       6.131300      2.894000      3.902300
  C       5.947300      1.364600      1.910900
  C       5.369300      1.008200      0.688800
  C       1.671000     -0.276200     -2.285300
  C      -1.919500     -1.815500      1.070500
  O      -1.052300     -2.920800      1.056500
  C      -0.997500     -3.919000      2.070100
  C      -2.833400     -1.602000      2.118100
  H      -6.210300      0.738100      2.458500
  H      -4.956700      1.705100      3.359200
  H      -6.076900      0.609900      4.252300
  H      -4.277600      1.275000      1.034600
  H      -3.236200      2.985900     -0.376100
  H      -3.119500      2.815000     -2.167400
  H      -4.484600      2.026000     -1.292900
  H      -0.691600     -3.834700     -2.390400
  H      -1.701200     -4.797900     -4.429000
  H      -3.335200     -0.948300     -5.442000
  H      -2.320700      0.019100     -3.413800
  H       1.077300     -0.206300      0.474000
  H       1.298000      1.520800     -0.124900
  H       3.080100      3.519300      0.431800
  H       4.101800      4.153300      2.574700
  H       6.489100      2.000300      4.456700
  H       6.994500      3.559100      3.691100
  H       5.408600      3.433400      4.551000
  H       6.752200      0.761700      2.312900
  H       5.727200      0.129600      0.167100
  H       1.914000      0.356400     -3.167800
  H       1.682900     -1.359100     -2.539200
  H      -0.723000     -3.460100      3.043300
  H      -0.224400     -4.667100      1.799800
  H      -1.977600     -4.434500      2.151600
  H      -2.892600     -2.291900      2.948800
60
Coordinates from ORCA-job file E -2653.469950870715
  C      -5.421748      0.726867      3.186556
  O      -4.509649     -0.353330      3.141481
  C      -3.643685     -0.499811      2.100437
  C      -3.608533      0.399037      1.027060
  C      -2.696917      0.198754     -0.013475
  O      -2.619243      1.049384     -1.072262
  C      -3.466568      2.176317     -1.176937
  C      -1.825282     -0.903002      0.015471
  S      -0.664864     -1.182004     -1.277289
  C      -1.416064     -1.819849     -2.732870
  C      -1.237734     -3.169571     -3.044807
  C      -1.818243     -3.697218     -4.197217
  C      -2.571863     -2.870823     -5.033446
  Cl     -3.296076     -3.531207     -6.475985
  C      -2.748341     -1.519367     -4.727220
  C      -2.168050     -0.992245     -3.575194
  C       0.405254      0.212011     -1.605862
  C       1.299001      0.487435     -0.393118
  N       2.507723      0.031551     -1.124093
  S       3.587932      1.334494     -1.434664
  O       4.648117      0.854262     -2.356775
  O       2.861332      2.505519     -1.997963
  C       4.304584      1.771866      0.110369
  C       3.847520      2.895114      0.803294
  C       4.412205      3.222871      2.035111
  C       5.423015      2.424795      2.590625
  C       6.056035      2.800407      3.901540
  C       5.878721      1.305103      1.878386
  C       5.317935      0.973937      0.646797
  C       1.676174     -0.258866     -2.316385
  C      -1.865679     -1.796880      1.098079
  O      -1.002006     -2.849957      1.099751
  C      -0.991597     -3.783838      2.161541
  C      -2.775890     -1.591861      2.137003
  H      -6.106513      0.692064      2.320492
  H      -4.880877      1.689878      3.201416
  H      -6.009710      0.633452      4.111111
  H      -4.284588      1.249479      1.003583
  H      -3.302811      2.863366     -0.327986
  H      -3.215522      2.698209     -2.111657
  H      -4.525223      1.863687     -1.213042
  H      -0.648888     -3.811444     -2.391946
  H      -1.681456     -4.748318     -4.441323
  H      -3.332772     -0.878758     -5.384172
  H      -2.294229      0.063140     -3.342642
  H       1.110118     -0.151970      0.493643
  H       1.305314      1.557859     -0.111694
  H       3.055243      3.516205      0.388835
  H       4.057656      4.105209      2.564767
  H       6.395976      1.902187      4.443414
  H       6.926225      3.454818      3.719345
  H       5.338473      3.336721      4.544401
  H       6.674201      0.683516      2.285306
  H       5.671606      0.096116      0.108264
  H       1.918520      0.354913     -3.204005
  H       1.707481     -1.339788     -2.563638
  H      -0.745817     -3.283508      3.114954
  H      -0.217735     -4.533360      1.941539
  H      -1.969689     -4.290393      2.241594
  H      -2.822502     -2.273174      2.983001
60
Coordinates from ORCA-job file E -2653.486020979679
  C      -5.388518      0.714938      3.110299
  O      -4.457083     -0.345336      3.121029
  C      -3.610881     -0.483853      2.095375
  C      -3.606634      0.385905      0.997049
  C      -2.687347      0.173300     -0.033174
  O      -2.626103      0.957031     -1.109587
  C      -3.516406      2.044535     -1.235564
  C      -1.779500     -0.902501      0.029536
  S      -0.597725     -1.203562     -1.235189
  C      -1.388839     -1.795109     -2.699685
  C      -1.218039     -3.138782     -3.032019
  C      -1.813038     -3.643351     -4.185838
  C      -2.568906     -2.794174     -4.993179
  Cl     -3.308035     -3.422469     -6.434244
  C      -2.739361     -1.447213     -4.667429
  C      -2.143968     -0.944821     -3.514637
  C       0.398792      0.234603     -1.605882
  C       1.292725      0.539005     -0.389226
  N       2.506386      0.103363     -1.148971
  S       3.564232      1.377831     -1.483366
  O       4.601534      0.854702     -2.377128
  O       2.841561      2.551349     -1.996211
  C       4.265025      1.768513      0.082120
  C       3.819889      2.886039      0.785712
  C       4.377887      3.169528      2.029836
  C       5.364091      2.339611      2.580880
  C       5.988617      2.670769      3.909952
  C       5.799955      1.225370      1.848105
  C       5.251705      0.932603      0.604247
  C       1.666614     -0.229702     -2.340015
  C      -1.799592     -1.767378      1.143737
  O      -0.914808     -2.768706      1.164590
  C      -0.901073     -3.655186      2.262550
  C      -2.715231     -1.555486      2.173483
  H      -6.066277      0.634730      2.245853
  H      -4.873352      1.688150      3.089133
  H      -5.971941      0.637186      4.033879
  H      -4.306433      1.214392      0.945118
  H      -3.373126      2.764672     -0.415359
  H      -3.284306      2.533833     -2.187398
  H      -4.561532      1.698158     -1.250456
  H      -0.621573     -3.791739     -2.393194
  H      -1.685836     -4.691715     -4.455162
  H      -3.330138     -0.795600     -5.311266
  H      -2.256649      0.108157     -3.254483
  H       1.142051     -0.091199      0.507686
  H       1.290630      1.603700     -0.103102
  H       3.046575      3.531601      0.366531
  H       4.037349      4.048699      2.579141
  H       6.303651      1.757986      4.434067
  H       6.874512      3.306978      3.758956
  H       5.280509      3.210644      4.553315
  H       6.576773      0.575872      2.254716
  H       5.589213      0.059428      0.043359
  H       1.902255      0.364190     -3.237859
  H       1.730595     -1.308750     -2.576274
  H      -0.681932     -3.117280      3.197940
  H      -0.106686     -4.384569      2.072106
  H      -1.863310     -4.182618      2.353522
  H      -2.748949     -2.206274      3.043577
60
Coordinates from ORCA-job file E -2653.492582278977
  C      -5.417313      0.705083      3.062418
  O      -4.442913     -0.316244      3.109474
  C      -3.601249     -0.462628      2.082326
  C      -3.629653      0.357879      0.946652
  C      -2.703358      0.129038     -0.076236
  O      -2.673333      0.851924     -1.192990
  C      -3.602042      1.901108     -1.374356
  C      -1.754423     -0.912022      0.033793
  S      -0.539394     -1.247427     -1.193528
  C      -1.367743     -1.783622     -2.670933
  C      -1.232372     -3.128840     -3.012180
  C      -1.840341     -3.610160     -4.169640
  C      -2.570377     -2.732272     -4.967934
  Cl     -3.325766     -3.328406     -6.412331
  C      -2.703053     -1.382260     -4.636121
  C      -2.094034     -0.904055     -3.480087
  C       0.364077      0.244522     -1.598643
  C       1.257061      0.584177     -0.383390
  N       2.481270      0.195974     -1.160734
  S       3.520844      1.464263     -1.496150
  O       4.540517      0.933185     -2.393733
  O       2.793690      2.652416     -1.942315
  C       4.233469      1.790756      0.082669
  C       3.820241      2.895059      0.823805
  C       4.398662      3.119578      2.071100
  C       5.371679      2.250737      2.583203
  C       6.017104      2.520516      3.916353
  C       5.768715      1.149856      1.809573
  C       5.204482      0.912526      0.561829
  C       1.641731     -0.183616     -2.345863
  C      -1.748093     -1.730428      1.189022
  O      -0.825124     -2.693069      1.245352
  C      -0.775837     -3.530805      2.381783
  C      -2.670593     -1.502466      2.208086
  H      -6.099776      0.563136      2.211295
  H      -4.945097      1.696402      2.993976
  H      -5.983980      0.638387      3.995924
  H      -4.358320      1.157406      0.857243
  H      -3.480514      2.673507     -0.601187
  H      -3.385951      2.335196     -2.355292
  H      -4.634560      1.522625     -1.361790
  H      -0.652848     -3.800151     -2.375427
  H      -1.743896     -4.659609     -4.449922
  H      -3.275262     -0.712948     -5.279615
  H      -2.169392      0.149113     -3.210236
  H       1.151878     -0.044733      0.519540
  H       1.231658      1.644798     -0.087878
  H       3.061766      3.572864      0.427525
  H       4.086718      3.987077      2.656795
  H       6.317696      1.585113      4.405542
  H       6.917589      3.138285      3.780589
  H       5.332664      3.059165      4.583899
  H       6.531843      0.467168      2.189670
  H       5.513029      0.053204     -0.037126
  H       1.863705      0.403153     -3.250933
  H       1.757553     -1.258351     -2.577147
  H      -0.573464     -2.948285      3.292385
  H       0.044123     -4.234735      2.211850
  H      -1.716404     -4.088162      2.501857
  H      -2.687288     -2.109902      3.109691
60
Coordinates from ORCA-job file E -2653.495221317264
  C      -5.372903      0.716384      3.127176
  O      -4.365718     -0.274198      3.164883
  C      -3.563033     -0.422119      2.106524
  C      -3.654940      0.365828      0.953057
  C      -2.757243      0.138247     -0.097673
  O      -2.797119      0.836803     -1.227085
  C      -3.764388      1.856800     -1.385028
  C      -1.769550     -0.871853      0.004173
  S      -0.533846     -1.230890     -1.207881
  C      -1.349152     -1.777790     -2.704904
  C      -1.273044     -3.147256     -2.959907
  C      -1.852999     -3.669943     -4.114297
  C      -2.490984     -2.803921     -4.997632
  Cl     -3.213144     -3.447146     -6.439013
  C      -2.554135     -1.429096     -4.759722
  C      -1.973220     -0.910654     -3.605999
  C       0.312219      0.290322     -1.643384
  C       1.190174      0.663422     -0.420366
  N       2.429651      0.295766     -1.185900
  S       3.484835      1.539020     -1.506878
  O       4.490867      0.983204     -2.399153
  O       2.784616      2.753991     -1.907060
  C       4.194258      1.800046      0.091608
  C       3.822856      2.901394      0.857432
  C       4.404096      3.065223      2.113610
  C       5.338862      2.145395      2.606292
  C       5.987210      2.350688      3.949277
  C       5.689481      1.047920      1.805835
  C       5.125206      0.867845      0.548685
  C       1.607985     -0.125161     -2.374395
  C      -1.706613     -1.659592      1.184425
  O      -0.750769     -2.591040      1.230966
  C      -0.633635     -3.389722      2.392268
  C      -2.600141     -1.433338      2.226954
  H      -6.086712      0.526499      2.312342
  H      -4.937609      1.719137      3.005127
  H      -5.893574      0.659922      4.087401
  H      -4.409470      1.141974      0.867734
  H      -3.628561      2.649276     -0.635546
  H      -3.603221      2.270387     -2.385425
  H      -4.783960      1.451959     -1.314409
  H      -0.762638     -3.805661     -2.253761
  H      -1.806772     -4.738435     -4.328029
  H      -3.050313     -0.774255     -5.477165
  H      -1.980593      0.158346     -3.409744
  H       1.103934      0.049194      0.493868
  H       1.156086      1.724681     -0.127805
  H       3.098477      3.620255      0.470073
  H       4.126843      3.927917      2.724248
  H       6.248541      1.391668      4.413944
  H       6.915088      2.931646      3.837411
  H       5.326082      2.904139      4.627558
  H       6.418500      0.322615      2.175073
  H       5.398132      0.014762     -0.076041
  H       1.842258      0.445405     -3.287029
  H       1.763755     -1.197191     -2.591375
  H      -0.410910     -2.773790      3.275197
  H       0.197307     -4.075577      2.205475
  H      -1.553197     -3.965816      2.569147
  H      -2.573212     -2.013634      3.146348
60
Coordinates from ORCA-job file E -2653.497719129700
  C      -5.273485      0.783548      3.124313
  O      -4.253096     -0.193168      3.186205
  C      -3.478497     -0.397275      2.109949
  C      -3.623168      0.311579      0.912993
  C      -2.753629      0.038927     -0.151874
  O      -2.856940      0.657015     -1.330412
  C      -3.858608      1.637278     -1.527624
  C      -1.738783     -0.933865     -0.016853
  S      -0.506272     -1.315617     -1.228113
  C      -1.369514     -1.779879     -2.729456
  C      -1.416245     -3.149526     -2.994940
  C      -2.035084     -3.609585     -4.156240
  C      -2.585965     -2.681222     -5.036500
  Cl     -3.355633     -3.243233     -6.490077
  C      -2.523898     -1.308316     -4.785847
  C      -1.905809     -0.853097     -3.624603
  C       0.296437      0.235498     -1.655654
  C       1.160039      0.635850     -0.431572
  N       2.411078      0.305493     -1.185634
  S       3.463996      1.561969     -1.480222
  O       4.476331      1.034045     -2.389476
  O       2.757561      2.785766     -1.856389
  C       4.173278      1.801889      0.125778
  C       3.801840      2.895681      0.902300
  C       4.373033      3.043676      2.165384
  C       5.303106      2.117094      2.653306
  C       5.939587      2.303562      4.003903
  C       5.655321      1.026342      1.843739
  C       5.100280      0.862465      0.579298
  C       1.611637     -0.136464     -2.378128
  C      -1.627266     -1.651426      1.204542
  O      -0.648724     -2.565545      1.282261
  C      -0.473780     -3.281975      2.490170
  C      -2.493367     -1.382094      2.259092
  H      -6.010846      0.537233      2.344987
  H      -4.854029      1.782406      2.928445
  H      -5.763278      0.778940      4.103518
  H      -4.399894      1.062528      0.801761
  H      -3.719311      2.484525     -0.839856
  H      -3.745554      1.982411     -2.560999
  H      -4.862888      1.209637     -1.389710
  H      -0.971035     -3.856594     -2.292428
  H      -2.084424     -4.675260     -4.379981
  H      -2.952097     -0.605953     -5.501282
  H      -1.812559      0.211021     -3.416745
  H       1.090499      0.023478      0.486098
  H       1.100660      1.697635     -0.139236
  H       3.082118      3.619356      0.517509
  H       4.091569      3.897959      2.784780
  H       6.193672      1.337258      4.459759
  H       6.872275      2.881244      3.907775
  H       5.275415      2.854559      4.682812
  H       6.377489      0.294831      2.212319
  H       5.374751      0.016383     -0.052892
  H       1.838152      0.444931     -3.287588
  H       1.807116     -1.201399     -2.600956
  H      -0.227998     -2.602321      3.319847
  H       0.361039     -3.968664      2.318276
  H      -1.377834     -3.856593      2.741145
  H      -2.428769     -1.904941      3.210525
60
Coordinates from ORCA-job file E -2653.499462094493
  C      -5.129293      0.813288      3.159020
  O      -4.128136     -0.183293      3.206876
  C      -3.374361     -0.405528      2.119650
  C      -3.538658      0.287426      0.915744
  C      -2.694345     -0.008432     -0.163727
  O      -2.810931      0.586358     -1.353702
  C      -3.807363      1.569019     -1.559768
  C      -1.685597     -0.981589     -0.033012
  S      -0.489694     -1.372370     -1.274917
  C      -1.404997     -1.788938     -2.759577
  C      -1.621931     -3.150043     -2.980803
  C      -2.289140     -3.565841     -4.131545
  C      -2.713692     -2.603891     -5.046116
  Cl     -3.543455     -3.111105     -6.487429
  C      -2.478188     -1.242627     -4.838852
  C      -1.814433     -0.831340     -3.686537
  C       0.312016      0.184800     -1.693819
  C       1.150742      0.616603     -0.465131
  N       2.413582      0.286761     -1.192573
  S       3.475868      1.536402     -1.478328
  O       4.503029      1.001121     -2.368519
  O       2.779591      2.758727     -1.884394
  C       4.151613      1.799812      0.138863
  C       3.765344      2.912381      0.880533
  C       4.292958      3.082355      2.159228
  C       5.198563      2.159077      2.696181
  C       5.785683      2.365303      4.065970
  C       5.569733      1.049394      1.920652
  C       5.056301      0.863653      0.641595
  C       1.644346     -0.173848     -2.393829
  C      -1.548713     -1.680800      1.193922
  O      -0.573230     -2.599175      1.261518
  C      -0.383408     -3.315321      2.466646
  C      -2.391824     -1.394528      2.262481
  H      -5.879185      0.585004      2.386178
  H      -4.690936      1.803861      2.963008
  H      -5.609530      0.815409      4.142752
  H      -4.313068      1.040923      0.808691
  H      -3.657646      2.425817     -0.886141
  H      -3.701027      1.897051     -2.599071
  H      -4.812831      1.148828     -1.407211
  H      -1.272675     -3.885065     -2.253026
  H      -2.470428     -4.623503     -4.322934
  H      -2.808740     -0.515224     -5.580629
  H      -1.586806      0.219705     -3.506651
  H       1.071974      0.023149      0.464192
  H       1.075634      1.683652     -0.195438
  H       3.062974      3.631809      0.457520
  H       3.994766      3.949685      2.751974
  H       6.011967      1.405509      4.549262
  H       6.727684      2.931376      3.994613
  H       5.102666      2.936569      4.708412
  H       6.272350      0.320308      2.329345
  H       5.344469      0.001961      0.037081
  H       1.876068      0.407109     -3.302587
  H       1.857890     -1.236610     -2.610525
  H      -0.128604     -2.634538      3.292704
  H       0.449456     -4.001924      2.285212
  H      -1.283764     -3.890581      2.729078
  H      -2.310638     -1.904092      3.219390
60
Coordinates from ORCA-job file E -2653.500676560753
  C      -5.141335      0.779386      3.109885
  O      -4.097604     -0.169938      3.181461
  C      -3.343107     -0.393636      2.097082
  C      -3.555334      0.244830      0.870418
  C      -2.712147     -0.054976     -0.208376
  O      -2.865697      0.479234     -1.420391
  C      -3.906441      1.405548     -1.656528
  C      -1.661354     -0.975396     -0.052970
  S      -0.492223     -1.352325     -1.320907
  C      -1.439784     -1.776580     -2.784692
  C      -1.765072     -3.123679     -2.946132
  C      -2.467450     -3.532187     -4.077527
  C      -2.814827     -2.578827     -5.033207
  Cl     -3.685788     -3.081322     -6.451925
  C      -2.470975     -1.233563     -4.883885
  C      -1.774758     -0.828523     -3.748029
  C       0.316199      0.208649     -1.720455
  C       1.122240      0.665500     -0.480895
  N       2.399742      0.335949     -1.176230
  S       3.477946      1.576164     -1.429491
  O       4.492874      1.051508     -2.339617
  O       2.801234      2.819209     -1.808829
  C       4.162714      1.795158      0.188936
  C       3.806724      2.909481      0.943434
  C       4.340558      3.052977      2.222734
  C       5.223781      2.100685      2.746727
  C       5.820065      2.277068      4.116719
  C       5.563838      0.989318      1.959005
  C       5.042947      0.830597      0.679880
  C       1.667964     -0.127498     -2.395135
  C      -1.470363     -1.616370      1.194142
  O      -0.451378     -2.482252      1.275999
  C      -0.214447     -3.155059      2.496371
  C      -2.310732     -1.328214      2.264609
  H      -5.884626      0.496856      2.348964
  H      -4.746218      1.781271      2.882487
  H      -5.617076      0.790919      4.095369
  H      -4.366769      0.955404      0.744339
  H      -3.793299      2.293339     -1.016811
  H      -3.822077      1.698358     -2.707929
  H      -4.890351      0.944882     -1.481097
  H      -1.469946     -3.854356     -2.190135
  H      -2.733077     -4.579120     -4.224724
  H      -2.749430     -0.512901     -5.653223
  H      -1.472930      0.210115     -3.598102
  H       1.024300      0.088771      0.456693
  H       1.029881      1.736731     -0.233284
  H       3.121956      3.651115      0.529338
  H       4.065760      3.921566      2.824890
  H       6.017629      1.306751      4.590783
  H       6.778711      2.814592      4.047947
  H       5.156541      2.863270      4.765569
  H       6.250844      0.239712      2.357185
  H       5.309806     -0.031267      0.065353
  H       1.905911      0.465191     -3.294824
  H       1.897639     -1.185347     -2.618505
  H       0.009855     -2.440102      3.301933
  H       0.651856     -3.801582      2.325692
  H      -1.080747     -3.770149      2.782273
  H      -2.192149     -1.794934      3.239142
60
Coordinates from ORCA-job file E -2653.501662184958
  C      -4.924734      0.797094      3.159208
  O      -3.885025     -0.158498      3.200465
  C      -3.168924     -0.392375      2.092223
  C      -3.413888      0.246788      0.871987
  C      -2.608624     -0.064797     -0.232437
  O      -2.786016      0.479731     -1.435464
  C      -3.811031      1.432259     -1.632200
  C      -1.567593     -1.004658     -0.107827
  S      -0.460096     -1.411541     -1.421886
  C      -1.499023     -1.796750     -2.839291
  C      -1.954795     -3.110588     -2.939053
  C      -2.729550     -3.487501     -4.033310
  C      -3.012934     -2.538752     -5.014447
  Cl     -3.966138     -3.008681     -6.391150
  C      -2.540101     -1.228249     -4.925367
  C      -1.774955     -0.853134     -3.823357
  C       0.359062      0.139820     -1.831356
  C       1.104733      0.648991     -0.575320
  N       2.411811      0.302265     -1.201200
  S       3.520725      1.515717     -1.425713
  O       4.576176      0.944063     -2.256270
  O       2.892587      2.758538     -1.879144
  C       4.110768      1.772252      0.224209
  C       3.739641      2.921462      0.916875
  C       4.199714      3.096922      2.221153
  C       5.023822      2.141869      2.829888
  C       5.543348      2.351419      4.226312
  C       5.379052      0.994524      2.102819
  C       4.931745      0.803042      0.800784
  C       1.741858     -0.197665     -2.439613
  C      -1.339530     -1.639792      1.134880
  O      -0.324644     -2.512573      1.183395
  C      -0.047556     -3.178070      2.399520
  C      -2.138592     -1.334993      2.231790
  H      -5.698619      0.512106      2.430650
  H      -4.532334      1.793904      2.906045
  H      -5.362396      0.821081      4.162079
  H      -4.217890      0.970394      0.771075
  H      -3.659836      2.311172     -0.988020
  H      -3.750083      1.733095     -2.683194
  H      -4.800356      0.993390     -1.433049
  H      -1.701733     -3.841203     -2.167467
  H      -3.097350     -4.508516     -4.135823
  H      -2.776109     -0.511191     -5.712174
  H      -1.379881      0.158030     -3.705709
  H       0.966145      0.113633      0.381079
  H       0.997078      1.729232     -0.377385
  H       3.099514      3.662737      0.436417
  H       3.912276      3.992354      2.776367
  H       5.679076      1.394135      4.746281
  H       6.522698      2.854120      4.196662
  H       4.864126      2.984152      4.811926
  H       6.022576      0.244174      2.567046
  H       5.212462     -0.086076      0.232918
  H       2.011131      0.379226     -3.340851
  H       1.990980     -1.256625     -2.633711
  H       0.212378     -2.459098      3.190594
  H       0.806117     -3.833352      2.200809
  H      -0.908687     -3.782569      2.722286
  H      -1.992575     -1.796447      3.205544
60
Coordinates from ORCA-job file E -2653.502365951181
  C      -4.755228      0.771960      3.193814
  O      -3.729473     -0.199724      3.201523
  C      -3.037299     -0.429396      2.076241
  C      -3.288623      0.236941      0.871820
  C      -2.508263     -0.072499     -0.251507
  O      -2.685250      0.511460     -1.435845
  C      -3.680054      1.504131     -1.587098
  C      -1.490698     -1.047252     -0.160058
  S      -0.433695     -1.480577     -1.508681
  C      -1.555921     -1.813887     -2.881311
  C      -2.138137     -3.079112     -2.919333
  C      -2.979206     -3.412763     -3.978364
  C      -3.195801     -2.474534     -4.986867
  Cl     -4.226757     -2.897913     -6.322554
  C      -2.597339     -1.214383     -4.957818
  C      -1.769644     -0.879916     -3.887999
  C       0.408337      0.053013     -1.919532
  C       1.089638      0.619043     -0.652238
  N       2.425255      0.252285     -1.201127
  S       3.567094      1.435825     -1.402512
  O       4.658827      0.809024     -2.139162
  O       2.994452      2.669885     -1.941004
  C       4.065627      1.753847      0.265847
  C       3.697371      2.948759      0.878650
  C       4.103813      3.180450      2.192440
  C       4.871521      2.237017      2.887203
  C       5.342198      2.508322      4.290241
  C       5.221092      1.041364      2.239716
  C       4.826696      0.792456      0.930644
  C       1.818827     -0.290258     -2.453698
  C      -1.251949     -1.702034      1.069839
  O      -0.253761     -2.595408      1.084349
  C       0.038004     -3.276855      2.289001
  C      -2.022788     -1.393019      2.185538
  H      -5.552045      0.502452      2.484432
  H      -4.355461      1.764498      2.935752
  H      -5.166218      0.795170      4.208097
  H      -4.074379      0.983773      0.798576
  H      -3.490480      2.357398     -0.919012
  H      -3.623968      1.835150     -2.629492
  H      -4.681504      1.094386     -1.387011
  H      -1.935250     -3.804941     -2.128013
  H      -3.450533     -4.394164     -4.034055
  H      -2.785940     -0.505060     -5.764462
  H      -1.279757      0.092225     -3.803774
  H       0.903777      0.131643      0.321074
  H       0.970346      1.707511     -0.513007
  H       3.105206      3.681309      0.328514
  H       3.820776      4.112470      2.686350
  H       5.423025      1.577883      4.867096
  H       6.339889      2.974257      4.272598
  H       4.664744      3.196621      4.811628
  H       5.822220      0.300502      2.771311
  H       5.108372     -0.131601      0.422282
  H       2.121582      0.266819     -3.356731
  H       2.081965     -1.351401     -2.612066
  H       0.329503     -2.570135      3.080127
  H       0.873997     -3.946644      2.064669
  H      -0.828774     -3.866010      2.625302
  H      -1.869962     -1.870356      3.151153
60
Coordinates from ORCA-job file E -2653.502669778779
  C      -4.682143      0.649651      3.240655
  O      -3.672776     -0.339423      3.199650
  C      -2.985531     -0.533676      2.060854
  C      -3.215189      0.197714      0.890087
  C      -2.441127     -0.077504     -0.248108
  O      -2.593718      0.597109     -1.389010
  C      -3.547282      1.640719     -1.464582
  C      -1.455576     -1.101687     -0.203936
  S      -0.420143     -1.556158     -1.569134
  C      -1.608048     -1.804555     -2.914467
  C      -2.301751     -3.011521     -2.918865
  C      -3.188070     -3.279275     -3.961460
  C      -3.331976     -2.341386     -4.984762
  Cl     -4.416603     -2.689625     -6.300464
  C      -2.622431     -1.141439     -4.986672
  C      -1.752720     -0.870653     -3.932598
  C       0.480962     -0.069887     -1.964690
  C       1.102471      0.559518     -0.697905
  N       2.460055      0.144247     -1.157048
  S       3.660381      1.265416     -1.363773
  O       4.775130      0.535185     -1.952766
  O       3.174596      2.464400     -2.039116
  C       4.066972      1.721708      0.295468
  C       3.730319      2.988535      0.766912
  C       4.092792      3.332195      2.069514
  C       4.784048      2.431173      2.889230
  C       5.218733      2.823123      4.275155
  C       5.097048      1.159759      2.383123
  C       4.745832      0.796540      1.088636
  C       1.906951     -0.453669     -2.411016
  C      -1.234924     -1.810268      1.001327
  O      -0.259320     -2.730769      0.975352
  C       0.021249     -3.456834      2.159481
  C      -1.996748     -1.524413      2.129348
  H      -5.491595      0.413992      2.533269
  H      -4.273134      1.644846      3.010148
  H      -5.079482      0.642064      4.261084
  H      -3.973654      0.974462      0.857129
  H      -3.322928      2.435817     -0.738118
  H      -3.476601      2.043357     -2.481105
  H      -4.566537      1.264252     -1.293127
  H      -2.158893     -3.738695     -2.114646
  H      -3.754001     -4.210683     -3.992796
  H      -2.754689     -0.433029     -5.805942
  H      -1.172924      0.050114     -3.861086
  H       0.854743      0.143113      0.293358
  H       0.994968      1.657304     -0.640216
  H       3.204408      3.688242      0.116276
  H       3.838396      4.321673      2.455473
  H       5.227369      1.954239      4.946069
  H       6.241759      3.230093      4.247574
  H       4.564304      3.597198      4.696758
  H       5.637256      0.450006      3.013452
  H       5.004522     -0.184322      0.686676
  H       2.255078      0.065141     -3.320057
  H       2.156896     -1.523693     -2.517228
  H       0.333955     -2.782640      2.970839
  H       0.839766     -4.139331      1.909090
  H      -0.861548     -4.031226      2.479214
  H      -1.858893     -2.046547      3.074995
60
Coordinates from ORCA-job file E -2653.504505090655
  C      -4.483457      0.669038      3.253281
  O      -3.492205     -0.336946      3.199194
  C      -2.822841     -0.538947      2.052664
  C      -3.057188      0.201354      0.888834
  C      -2.307040     -0.084930     -0.261543
  O      -2.455084      0.589790     -1.401571
  C      -3.393449      1.644861     -1.476370
  C      -1.349740     -1.128185     -0.238655
  S      -0.386859     -1.593347     -1.649952
  C      -1.654748     -1.804894     -2.928481
  C      -2.442144     -2.950552     -2.853587
  C      -3.396148     -3.180992     -3.842964
  C      -3.513393     -2.271254     -4.894592
  Cl     -4.685752     -2.578093     -6.144371
  C      -2.710511     -1.134063     -4.975456
  C      -1.771297     -0.898630     -3.972820
  C       0.535783     -0.127437     -2.068706
  C       1.101259      0.572199     -0.815229
  N       2.472110      0.127514     -1.188583
  S       3.696478      1.227207     -1.357652
  O       4.829054      0.472969     -1.881455
  O       3.264815      2.420210     -2.083308
  C       4.017640      1.706297      0.314576
  C       3.676930      2.987855      0.740309
  C       3.960071      3.351832      2.056798
  C       4.577622      2.454649      2.937260
  C       4.922403      2.864857      4.343317
  C       4.900267      1.168659      2.476019
  C       4.627888      0.786416      1.167815
  C       1.981911     -0.514244     -2.442885
  C      -1.116787     -1.844700      0.956719
  O      -0.159614     -2.782354      0.908146
  C       0.127055     -3.522302      2.081223
  C      -1.850442     -1.548129      2.101086
  H      -5.305793      0.450368      2.555153
  H      -4.058204      1.657052      3.020073
  H      -4.869013      0.667640      4.278097
  H      -3.800686      0.993105      0.870479
  H      -3.159906      2.435948     -0.748180
  H      -3.316862      2.047783     -2.492004
  H      -4.417398      1.279646     -1.306420
  H      -2.317625     -3.660167     -2.031099
  H      -4.036081     -4.063079     -3.812370
  H      -2.828402     -0.443896     -5.811810
  H      -1.120117     -0.021810     -3.954150
  H       0.805907      0.214341      0.185687
  H       0.997540      1.672279     -0.825966
  H       3.202767      3.681753      0.045575
  H       3.696805      4.352200      2.406768
  H       4.862633      2.009577      5.029312
  H       5.954023      3.248647      4.381837
  H       4.257745      3.661399      4.702213
  H       5.383643      0.462133      3.154236
  H       4.891487     -0.208102      0.803849
  H       2.363359     -0.021004     -3.353406
  H       2.242810     -1.585351     -2.504776
  H       0.462378     -2.859151      2.892647
  H       0.930697     -4.215877      1.814155
  H      -0.759406     -4.085728      2.410554
  H      -1.704887     -2.075417      3.041986
60
Coordinates from ORCA-job file E -2653.505983447335
  C      -4.528917      0.623531      3.207441
  O      -3.528297     -0.373448      3.179022
  C      -2.827170     -0.560225      2.052063
  C      -3.052556      0.178799      0.886532
  C      -2.272680     -0.084688     -0.246325
  O      -2.394544      0.575155     -1.399640
  C      -3.383703      1.570146     -1.551432
  C      -1.303676     -1.092319     -0.215377
  S      -0.346244     -1.498552     -1.645062
  C      -1.655035     -1.747307     -2.872525
  C      -2.457920     -2.879020     -2.730380
  C      -3.443424     -3.134500     -3.680653
  C      -3.585489     -2.263663     -4.760934
  Cl     -4.802790     -2.604227     -5.959216
  C      -2.767495     -1.141834     -4.911067
  C      -1.790758     -0.882485     -3.950203
  C       0.597642     -0.082231     -2.119632
  C       1.160675      0.713981     -0.929159
  N       2.522619      0.207138     -1.243802
  S       3.774136      1.287532     -1.415362
  O       4.901581      0.523135     -1.946229
  O       3.369079      2.494659     -2.143706
  C       4.076635      1.724799      0.273727
  C       3.744424      2.997480      0.725267
  C       3.974463      3.318784      2.061264
  C       4.531052      2.384840      2.943031
  C       4.802746      2.743901      4.378942
  C       4.858527      1.109858      2.457409
  C       4.640350      0.772497      1.125732
  C       2.041789     -0.485265     -2.470592
  C      -1.074135     -1.815935      0.974703
  O      -0.098433     -2.734460      0.943880
  C       0.158489     -3.492721      2.111154
  C      -1.836988     -1.549286      2.109699
  H      -5.321154      0.410038      2.472833
  H      -4.101839      1.618268      3.008177
  H      -4.953620      0.606473      4.215891
  H      -3.812635      0.952795      0.857887
  H      -3.247822      2.380896     -0.820344
  H      -3.261158      1.966010     -2.563946
  H      -4.391982      1.141512     -1.445071
  H      -2.320777     -3.558546     -1.886069
  H      -4.090536     -4.008085     -3.596057
  H      -2.899978     -0.482448     -5.768696
  H      -1.123213     -0.014390     -3.997240
  H       0.844162      0.435694      0.089763
  H       1.081054      1.812538     -1.027748
  H       3.307043      3.719130      0.035323
  H       3.708818      4.312394      2.427083
  H       4.690745      1.867336      5.031966
  H       5.835891      3.109332      4.486831
  H       4.127667      3.536986      4.725692
  H       5.288935      0.371754      3.137489
  H       4.893272     -0.220360      0.748980
  H       2.432712     -0.034219     -3.399345
  H       2.294390     -1.560544     -2.474893
  H       0.445538     -2.837747      2.947343
  H       0.989275     -4.161434      1.866853
  H      -0.723583     -4.085807      2.394404
  H      -1.695159     -2.081645      3.045825
60
Coordinates from ORCA-job file E -2653.508316091381
  C      -4.294456      0.645985      3.271459
  O      -3.359546     -0.410205      3.189630
  C      -2.679265     -0.594924      2.048915
  C      -2.873219      0.195766      0.911512
  C      -2.122813     -0.075895     -0.238601
  O      -2.220878      0.632939     -1.364274
  C      -3.163486      1.679580     -1.458682
  C      -1.214104     -1.143469     -0.253488
  S      -0.312193     -1.568415     -1.714455
  C      -1.683448     -1.761897     -2.887623
  C      -2.545657     -2.839749     -2.692499
  C      -3.576799     -3.055086     -3.603606
  C      -3.703887     -2.199800     -4.698347
  Cl     -4.980551     -2.490980     -5.847194
  C      -2.828935     -1.130925     -4.898922
  C      -1.805322     -0.912582     -3.977393
  C       0.657230     -0.188233     -2.211276
  C       1.148829      0.700327     -1.056561
  N       2.524532      0.169949     -1.250599
  S       3.795038      1.229456     -1.394083
  O       4.940112      0.434747     -1.831815
  O       3.443719      2.410249     -2.188274
  C       4.010988      1.731127      0.290441
  C       3.667213      3.023326      0.673311
  C       3.825275      3.393746      2.007562
  C       4.323199      2.489756      2.953422
  C       4.517652      2.901134      4.387917
  C       4.664508      1.194238      2.535062
  C       4.516003      0.807271      1.207670
  C       2.118805     -0.598779     -2.459085
  C      -1.012242     -1.915543      0.910426
  O      -0.099477     -2.893515      0.832131
  C       0.117681     -3.713473      1.965126
  C      -1.748115     -1.642907      2.061607
  H      -5.101565      0.520123      2.533259
  H      -3.804952      1.619921      3.117488
  H      -4.715374      0.607385      4.281074
  H      -3.587827      1.013383      0.916021
  H      -2.977476      2.451214     -0.696695
  H      -3.037915      2.112021     -2.456245
  H      -4.189325      1.294581     -1.351241
  H      -2.419235     -3.509676     -1.838311
  H      -4.272173     -3.885464     -3.477851
  H      -2.954394     -0.479826     -5.764193
  H      -1.090687     -0.086396     -4.060987
  H       0.768285      0.504183     -0.039855
  H       1.082995      1.787559     -1.246333
  H       3.276133      3.720995     -0.067750
  H       3.549750      4.402746      2.320527
  H       4.360958      2.051162      5.066006
  H       5.546724      3.262555      4.540250
  H       3.832132      3.711991      4.666078
  H       5.049432      0.479600      3.265651
  H       4.778488     -0.201461      0.883245
  H       2.556853     -0.197159     -3.389655
  H       2.376849     -1.670215     -2.388898
  H       0.453094     -3.113678      2.824359
  H       0.902229     -4.422872      1.684562
  H      -0.798386     -4.260575      2.233741
  H      -1.631006     -2.215314      2.977842
60
Coordinates from ORCA-job file E -2653.510885046148
  C      -4.115489      0.614485      3.355008
  O      -3.234591     -0.481993      3.213338
  C      -2.579212     -0.658436      2.054874
  C      -2.742842      0.182670      0.947748
  C      -2.019595     -0.090703     -0.219057
  O      -2.095560      0.678486     -1.307632
  C      -3.002393      1.763832     -1.324226
  C      -1.167367     -1.218369     -0.283434
  S      -0.296090     -1.661101     -1.761285
  C      -1.697352     -1.765474     -2.918410
  C      -2.626113     -2.781746     -2.709255
  C      -3.681933     -2.929260     -3.607130
  C      -3.764908     -2.069164     -4.703345
  Cl     -5.074686     -2.266090     -5.834150
  C      -2.824929     -1.062289     -4.915813
  C      -1.777149     -0.914566     -4.009146
  C       0.708447     -0.336726     -2.260122
  C       1.122857      0.654166     -1.162014
  N       2.504655      0.096185     -1.211041
  S       3.796511      1.123904     -1.343398
  O       4.941707      0.281368     -1.666490
  O       3.504977      2.253983     -2.223064
  C       3.951099      1.733940      0.312314
  C       3.608634      3.051407      0.603644
  C       3.728191      3.499028      1.920060
  C       4.187997      2.648662      2.933006
  C       4.345073      3.145111      4.345477
  C       4.527489      1.326336      2.602340
  C       4.412951      0.861132      1.298092
  C       2.176480     -0.764305     -2.384298
  C      -0.996895     -2.035760      0.855179
  O      -0.143763     -3.061343      0.728463
  C       0.046527     -3.929646      1.829168
  C      -1.706349     -1.757926      2.020986
  H      -4.935954      0.562041      2.624302
  H      -3.581259      1.569951      3.237611
  H      -4.525746      0.548871      4.368103
  H      -3.408991      1.041013      0.988061
  H      -2.770416      2.486597     -0.527564
  H      -2.885087      2.245385     -2.301359
  H      -4.038218      1.409614     -1.208672
  H      -2.536585     -3.453438     -1.850495
  H      -4.434541     -3.705336     -3.466121
  H      -2.917775     -0.404462     -5.781161
  H      -1.008407     -0.145906     -4.109658
  H       0.662335      0.555270     -0.162689
  H       1.090453      1.718478     -1.454549
  H       3.250599      3.708060     -0.191051
  H       3.456944      4.528437      2.164475
  H       4.161213      2.340497      5.069281
  H       5.372484      3.508216      4.506571
  H       3.659908      3.976890      4.553597
  H       4.888266      0.654244      3.383852
  H       4.677063     -0.166232      1.041004
  H       2.674159     -0.427253     -3.310427
  H       2.426522     -1.826756     -2.223588
  H       0.429585     -3.381377      2.702709
  H       0.785904     -4.670314      1.508082
  H      -0.893993     -4.434956      2.096686
  H      -1.614847     -2.367328      2.918116
60
Coordinates from ORCA-job file E -2653.513586266256
  C      -3.967903      0.557076      3.422242
  O      -3.174699     -0.596914      3.227279
  C      -2.521441     -0.762655      2.065546
  C      -2.607560      0.145317      1.002435
  C      -1.892929     -0.124640     -0.170162
  O      -1.887305      0.709399     -1.215552
  C      -2.713968      1.858514     -1.184436
  C      -1.127438     -1.312636     -0.286990
  S      -0.273902     -1.737730     -1.782733
  C      -1.704482     -1.766563     -2.915415
  C      -2.680689     -2.735345     -2.697738
  C      -3.756114     -2.824774     -3.580518
  C      -3.813419     -1.953674     -4.670119
  Cl     -5.149500     -2.072729     -5.780886
  C      -2.827978     -0.994202     -4.890284
  C      -1.759550     -0.907071     -4.000231
  C       0.761684     -0.462657     -2.278081
  C       1.119579      0.624617     -1.257108
  N       2.500499      0.062872     -1.183709
  S       3.803461      1.077216     -1.316718
  O       4.954357      0.212948     -1.546346
  O       3.553251      2.159879     -2.263982
  C       3.903581      1.777219      0.307007
  C       3.557627      3.109164      0.516716
  C       3.639079      3.625387      1.811266
  C       4.065891      2.828754      2.880806
  C       4.185052      3.401207      4.267918
  C       4.408659      1.489231      2.630795
  C       4.329849      0.955746      1.350805
  C       2.233168     -0.886226     -2.303980
  C      -1.031441     -2.195688      0.810257
  O      -0.266112     -3.281436      0.632888
  C      -0.154383     -4.217118      1.687685
  C      -1.733502     -1.922708      1.981942
  H      -4.778833      0.611680      2.681560
  H      -3.358195      1.472066      3.365162
  H      -4.397326      0.467215      4.425687
  H      -3.204007      1.051036      1.082297
  H      -2.440177      2.521068     -0.349949
  H      -2.550068      2.379772     -2.134342
  H      -3.773370      1.573845     -1.095005
  H      -2.613528     -3.415352     -1.843115
  H      -4.544689     -3.562892     -3.431657
  H      -2.900805     -0.325814     -5.749651
  H      -0.955488     -0.178636     -4.112263
  H       0.600735      0.614442     -0.281829
  H       1.113338      1.657699     -1.645128
  H       3.229813      3.725080     -0.322752
  H       3.368006      4.667941      1.992447
  H       3.978727      2.638491      5.029804
  H       5.208360      3.771924      4.438084
  H       3.496535      4.244051      4.410389
  H       4.744829      0.858498      3.456464
  H       4.597738     -0.084211      1.155755
  H       2.772256     -0.607753     -3.226434
  H       2.480855     -1.931965     -2.057936
  H       0.271613     -3.749868      2.587980
  H       0.520095     -5.000800      1.327810
  H      -1.135341     -4.653632      1.930617
  H      -1.702496     -2.583668      2.846909
60
Coordinates from ORCA-job file E -2653.515186052560
  C      -3.995700      0.374478      3.483190
  O      -3.297831     -0.829822      3.238219
  C      -2.608062     -0.962492      2.094663
  C      -2.577155      0.026044      1.101726
  C      -1.834860     -0.217467     -0.060130
  O      -1.699087      0.678759     -1.052570
  C      -2.408771      1.905581     -0.998956
  C      -1.152207     -1.440535     -0.235426
  S      -0.261554     -1.786710     -1.736330
  C      -1.692190     -1.731413     -2.879336
  C      -2.708976     -2.669660     -2.701330
  C      -3.779912     -2.699078     -3.593309
  C      -3.801195     -1.793319     -4.655091
  Cl     -5.131928     -1.829572     -5.778217
  C      -2.779949     -0.863667     -4.838725
  C      -1.713389     -0.839251     -3.940918
  C       0.817889     -0.572305     -2.199846
  C       1.167938      0.596896     -1.274190
  N       2.544526      0.038047     -1.121214
  S       3.858471      1.045876     -1.300032
  O       5.020370      0.173480     -1.439351
  O       3.630466      2.069553     -2.317465
  C       3.929591      1.860339      0.268851
  C       3.586037      3.203136      0.374200
  C       3.657358      3.814092      1.626165
  C       4.073486      3.098476      2.755302
  C       4.189185      3.778575      4.091562
  C       4.409750      1.742060      2.611330
  C       4.340139      1.114828      1.374424
  C       2.291633     -0.991002     -2.173728
  C      -1.171451     -2.407083      0.792799
  O      -0.500862     -3.543902      0.556356
  C      -0.517845     -4.564478      1.534685
  C      -1.907079     -2.169315      1.952292
  H      -4.759505      0.555251      2.712184
  H      -3.305764      1.231392      3.522138
  H      -4.483681      0.254531      4.456118
  H      -3.104984      0.966214      1.227958
  H      -2.102863      2.499266     -0.126367
  H      -2.152615      2.446762     -1.915467
  H      -3.493043      1.725328     -0.961458
  H      -2.675152     -3.376170     -1.867323
  H      -4.591044     -3.418641     -3.472586
  H      -2.821543     -0.168506     -5.678018
  H      -0.888843     -0.130945     -4.040115
  H       0.621738      0.667939     -0.319875
  H       1.189134      1.593387     -1.745590
  H       3.277843      3.758217     -0.513398
  H       3.394716      4.869465      1.725123
  H       3.979157      3.081322      4.913294
  H       5.211812      4.161400      4.236067
  H       3.501449      4.631445      4.161762
  H       4.734828      1.173338      3.485056
  H       4.606341      0.062493      1.257878
  H       2.850356     -0.765074     -3.098799
  H       2.539916     -2.015799     -1.855854
  H      -0.081606     -4.214086      2.481821
  H       0.090271     -5.380420      1.131721
  H      -1.543484     -4.921549      1.714416
  H      -1.970267     -2.895709      2.761214
60
Coordinates from ORCA-job file E -2653.515691808975
  C      -3.787757      0.474992      3.484415
  O      -3.069451     -0.721854      3.270847
  C      -2.433398     -0.890714      2.103951
  C      -2.483529      0.048483      1.066866
  C      -1.793825     -0.226904     -0.119704
  O      -1.756863      0.590323     -1.181018
  C      -2.498031      1.794995     -1.178439
  C      -1.086898     -1.417931     -0.272598
  S      -0.271547     -1.770706     -1.815125
  C      -1.745375     -1.673791     -2.898142
  C      -2.797576     -2.556465     -2.645864
  C      -3.907535     -2.567975     -3.484681
  C      -3.937064     -1.697199     -4.572858
  Cl     -5.320446     -1.718050     -5.631872
  C      -2.882739     -0.820306     -4.833534
  C      -1.772318     -0.812651     -3.985736
  C       0.870085     -0.582034     -2.287799
  C       1.223441      0.594410     -1.369612
  N       2.576317      0.011909     -1.163602
  S       3.920112      0.990649     -1.277283
  O       5.075582      0.099256     -1.376260
  O       3.771706      2.041940     -2.289730
  C       3.902253      1.772498      0.310219
  C       3.577825      3.119074      0.404953
  C       3.562613      3.718140      1.661988
  C       3.873452      2.984551      2.813064
  C       3.890390      3.648658      4.160950
  C       4.195483      1.624444      2.683367
  C       4.214941      1.009573      1.437265
  C       2.344530     -1.018809     -2.214028
  C      -1.031057     -2.345545      0.785482
  O      -0.336358     -3.469672      0.562996
  C      -0.275529     -4.448947      1.580637
  C      -1.708915     -2.083531      1.974526
  H      -4.597532      0.593663      2.747095
  H      -3.119090      1.348011      3.437207
  H      -4.219404      0.402319      4.487335
  H      -3.040859      0.972762      1.173039
  H      -2.156443      2.461034     -0.373426
  H      -2.312752      2.267601     -2.146796
  H      -3.572716      1.590726     -1.060953
  H      -2.755766     -3.239751     -1.794535
  H      -4.739612     -3.250696     -3.306675
  H      -2.934241     -0.150550     -5.691372
  H      -0.922540     -0.136923     -4.141369
  H       0.659299      0.693024     -0.432200
  H       1.279541      1.585818     -1.853650
  H       3.347388      3.684998     -0.497902
  H       3.308188      4.775986      1.749859
  H       3.600141      2.947357      4.955255
  H       4.903861      4.009596      4.395752
  H       3.216633      4.515061      4.182731
  H       4.432685      1.042805      3.576911
  H       4.466252     -0.047893      1.331258
  H       2.937033     -0.811262     -3.123120
  H       2.574911     -2.043232     -1.878277
  H       0.188366     -4.042220      2.491512
  H       0.341092     -5.261906      1.185683
  H      -1.278767     -4.832328      1.821651
  H      -1.708188     -2.774812      2.812847
60
Coordinates from ORCA-job file E -2653.516499442139
  C      -3.591716      0.504920      3.533693
  O      -2.896588     -0.698329      3.274115
  C      -2.295036     -0.873197      2.085964
  C      -2.331770      0.080549      1.061911
  C      -1.686611     -0.207665     -0.144152
  O      -1.699074      0.632183     -1.179625
  C      -2.417267      1.842488     -1.056051
  C      -1.016379     -1.434788     -0.326103
  S      -0.236606     -1.830101     -1.878961
  C      -1.724614     -1.689614     -2.927842
  C      -2.801640     -2.517184     -2.623751
  C      -3.936367     -2.486315     -3.429011
  C      -3.963182     -1.623377     -4.525344
  Cl     -5.382518     -1.583800     -5.534450
  C      -2.879544     -0.801880     -4.833841
  C      -1.744016     -0.842014     -4.023812
  C       0.931766     -0.681396     -2.346486
  C       1.208806      0.550864     -1.483266
  N       2.543570     -0.025354     -1.159566
  S       3.890636      0.926923     -1.242890
  O       5.023045      0.008807     -1.267158
  O       3.795237      1.928011     -2.306132
  C       3.823190      1.758228      0.322678
  C       3.521908      3.116404      0.375549
  C       3.467869      3.743642      1.621419
  C       3.711738      3.029753      2.801162
  C       3.680221      3.716821      4.140605
  C       4.012790      1.661023      2.711521
  C       4.072960      1.018644      1.480150
  C       2.385028     -1.123786     -2.155120
  C      -0.988745     -2.380210      0.718628
  O      -0.337965     -3.524921      0.469677
  C      -0.303751     -4.520224      1.473955
  C      -1.627660     -2.098921      1.924335
  H      -4.421759      0.648781      2.825784
  H      -2.914275      1.371405      3.482679
  H      -3.992506      0.416040      4.548849
  H      -2.852514      1.027055      1.188840
  H      -1.988499      2.474339     -0.261777
  H      -2.325480      2.352862     -2.021104
  H      -3.478518      1.647249     -0.837745
  H      -2.764884     -3.183181     -1.756964
  H      -4.793957     -3.123052     -3.213428
  H      -2.927783     -0.140812     -5.700131
  H      -0.862626     -0.225096     -4.217039
  H       0.588365      0.701425     -0.584109
  H       1.286620      1.509936     -2.027827
  H       3.334367      3.666416     -0.547362
  H       3.229072      4.807945      1.677406
  H       3.344598      3.031188      4.929760
  H       4.688966      4.065360      4.413150
  H       3.019792      4.593140      4.122453
  H       4.201841      1.094161      3.625722
  H       4.305146     -0.045367      1.409691
  H       3.025732     -0.981705     -3.044348
  H       2.585036     -2.124427     -1.737290
  H       0.180741     -4.142220      2.387009
  H       0.281473     -5.349933      1.064048
  H      -1.319373     -4.868800      1.716918
  H      -1.637291     -2.798893      2.756515
60
Coordinates from ORCA-job file E -2653.516686154395
  C      -3.922061      0.394014      3.517137
  O      -3.163861     -0.774846      3.279002
  C      -2.529720     -0.922130      2.103507
  C      -2.594612      0.025385      1.075128
  C      -1.915441     -0.234889     -0.121032
  O      -1.967010      0.596904     -1.170159
  C      -2.723871      1.787461     -1.065373
  C      -1.155929     -1.417145     -0.274972
  S      -0.279883     -1.776046     -1.792734
  C      -1.691652     -1.690135     -2.935621
  C      -2.748735     -2.568581     -2.716318
  C      -3.822397     -2.582045     -3.603442
  C      -3.810782     -1.709058     -4.693286
  Cl     -5.153616     -1.712590     -5.801473
  C      -2.745157     -0.839693     -4.918491
  C      -1.671235     -0.836729     -4.030005
  C       0.861563     -0.609849     -2.217935
  C       1.160629      0.594918     -1.324376
  N       2.522530      0.031407     -1.096178
  S       3.853730      0.996057     -1.269354
  O       4.980859      0.081093     -1.410057
  O       3.656507      2.012834     -2.301192
  C       3.936287      1.812074      0.303895
  C       3.652798      3.172552      0.397916
  C       3.724623      3.788119      1.648507
  C       4.074279      3.061718      2.793112
  C       4.176783      3.737568      4.135003
  C       4.352910      1.691216      2.663006
  C       4.289786      1.060170      1.425699
  C       2.321834     -1.048124     -2.106272
  C      -1.105518     -2.355753      0.777718
  O      -0.392564     -3.469577      0.552864
  C      -0.331010     -4.453925      1.567120
  C      -1.793625     -2.108299      1.963237
  H      -4.738181      0.494553      2.785633
  H      -3.287240      1.292636      3.480165
  H      -4.346376      0.288065      4.521116
  H      -3.170541      0.939591      1.188085
  H      -2.301339      2.453159     -0.296558
  H      -2.664559      2.274972     -2.044553
  H      -3.774135      1.566248     -0.824404
  H      -2.744268     -3.239915     -1.853249
  H      -4.659935     -3.263339     -3.455577
  H      -2.757569     -0.175183     -5.783664
  H      -0.809814     -0.181417     -4.171559
  H       0.594579      0.695180     -0.384769
  H       1.189809      1.572718     -1.837000
  H       3.382778      3.734502     -0.496973
  H       3.501626      4.853871      1.736337
  H       3.912885      3.047640      4.947201
  H       5.209497      4.077229      4.311380
  H       3.523717      4.618523      4.187972
  H       4.623082      1.113426      3.549276
  H       4.504916     -0.004765      1.324094
  H       2.917790     -0.878597     -3.020855
  H       2.549363     -2.054046     -1.718350
  H       0.123498     -4.048078      2.483695
  H       0.294760     -5.261802      1.173784
  H      -1.334637     -4.842447      1.798065
  H      -1.786142     -2.806794      2.797627
60
Coordinates from ORCA-job file E -2653.517577889252
  C      -3.855731      0.294092      3.548915
  O      -3.131144     -0.891766      3.302078
  C      -2.490139     -1.021567      2.131623
  C      -2.532882     -0.045724      1.128948
  C      -1.858926     -0.291406     -0.076729
  O      -1.846382      0.564412     -1.117684
  C      -2.530338      1.802649     -1.041390
  C      -1.130490     -1.478739     -0.256411
  S      -0.296356     -1.812870     -1.805326
  C      -1.727516     -1.641304     -2.917719
  C      -2.845881     -2.434782     -2.665181
  C      -3.930703     -2.391773     -3.537907
  C      -3.866256     -1.558223     -4.655255
  Cl     -5.215800     -1.505414     -5.754870
  C      -2.742824     -0.775236     -4.914852
  C      -1.660656     -0.821249     -4.035901
  C       0.876570     -0.684838     -2.227181
  C       1.178407      0.562248     -1.391788
  N       2.522558     -0.004043     -1.090384
  S       3.887487      0.935999     -1.232955
  O       5.010304      0.002486     -1.284254
  O       3.764693      1.931373     -2.298760
  C       3.914880      1.810353      0.307351
  C       3.683915      3.181384      0.325542
  C       3.710598      3.849296      1.548472
  C       3.966895      3.161366      2.740323
  C       4.023826      3.893553      4.052586
  C       4.194191      1.776412      2.686408
  C       4.174012      1.094045      1.476514
  C       2.336217     -1.121759     -2.058543
  C      -1.079819     -2.435403      0.778094
  O      -0.377816     -3.551058      0.527803
  C      -0.346768     -4.572472      1.505307
  C      -1.769215     -2.211584      1.967410
  H      -4.649639      0.440131      2.799818
  H      -3.189908      1.170651      3.548894
  H      -4.308306      0.180146      4.539085
  H      -3.087581      0.874892      1.268843
  H      -2.104109      2.434426     -0.249602
  H      -2.389598      2.288196     -2.011666
  H      -3.602894      1.649513     -0.856514
  H      -2.877191     -3.088819     -1.790392
  H      -4.813342     -3.008716     -3.363593
  H      -2.718790     -0.134614     -5.796786
  H      -0.762205     -0.220234     -4.199040
  H       0.584412      0.725960     -0.481300
  H       1.247556      1.508982     -1.952159
  H       3.488555      3.711442     -0.607763
  H       3.526443      4.925261      1.577241
  H       3.680220      3.256087      4.877833
  H       5.059460      4.193251      4.276399
  H       3.413069      4.805529      4.025374
  H       4.390265      1.229486      3.610982
  H       4.351916      0.017528      1.431582
  H       2.961349     -0.988381     -2.958614
  H       2.549159     -2.112304     -1.628083
  H       0.091467     -4.206923      2.445834
  H       0.280238     -5.369732      1.094684
  H      -1.357823     -4.961331      1.700052
  H      -1.771631     -2.928884      2.786107
60
Coordinates from ORCA-job file E -2653.517918867270
  C      -3.765405      0.385847      3.553820
  O      -3.039796     -0.800465      3.308530
  C      -2.430805     -0.957633      2.123182
  C      -2.478329      0.004973      1.107960
  C      -1.827026     -0.264053     -0.101876
  O      -1.828826      0.576686     -1.144291
  C      -2.498506      1.817035     -1.042043
  C      -1.131076     -1.465912     -0.285454
  S      -0.310107     -1.813636     -1.835118
  C      -1.743862     -1.670447     -2.941260
  C      -2.840634     -2.493531     -2.691554
  C      -3.924708     -2.477536     -3.564609
  C      -3.882859     -1.638832     -4.678294
  Cl     -5.233940     -1.621463     -5.777301
  C      -2.780707     -0.823609     -4.934438
  C      -1.696879     -0.844706     -4.055841
  C       0.869200     -0.676523     -2.258186
  C       1.139924      0.577005     -1.423479
  N       2.483847      0.024228     -1.100192
  S       3.840555      0.966561     -1.240095
  O       4.959379      0.031060     -1.316801
  O       3.709857      1.972650     -2.296504
  C       3.872056      1.807712      0.320185
  C       3.642573      3.178984      0.369485
  C       3.673432      3.820836      1.606801
  C       3.931847      3.107934      2.783686
  C       3.990318      3.810058      4.113054
  C       4.160226      1.724977      2.699199
  C       4.135325      1.068297      1.474524
  C       2.325823     -1.106572     -2.057520
  C      -1.078375     -2.415008      0.754363
  O      -0.376454     -3.532136      0.511261
  C      -0.316252     -4.531992      1.509198
  C      -1.733243     -2.163196      1.957963
  H      -4.582872      0.512610      2.827082
  H      -3.105881      1.266698      3.516712
  H      -4.186687      0.289219      4.559666
  H      -3.011995      0.940274      1.245656
  H      -2.042856      2.442939     -0.259659
  H      -2.384953      2.304802     -2.015301
  H      -3.567089      1.671572     -0.824623
  H      -2.855366     -3.148379     -1.817071
  H      -4.790799     -3.116653     -3.391500
  H      -2.772958     -0.181313     -5.815478
  H      -0.808967     -0.227349     -4.220717
  H       0.530616      0.732745     -0.519420
  H       1.200346      1.524989     -1.986299
  H       3.444098      3.728929     -0.550985
  H       3.490020      4.895978      1.658748
  H       3.649475      3.152159      4.923696
  H       5.025973      4.106492      4.341792
  H       3.377165      4.720636      4.109049
  H       4.359206      1.158858      3.611591
  H       4.313296     -0.006767      1.407587
  H       2.966415     -0.989977     -2.949888
  H       2.532669     -2.089282     -1.603854
  H       0.137247     -4.141062      2.432504
  H       0.310464     -5.332896      1.104439
  H      -1.319441     -4.925889      1.732695
  H      -1.723697     -2.866927      2.786722
60
Coordinates from ORCA-job file E -2653.517790908407
  C      -3.922794      0.256047      3.524966
  O      -3.138812     -0.893425      3.279376
  C      -2.495969     -1.014310      2.105330
  C      -2.567080     -0.050717      1.092353
  C      -1.888344     -0.289731     -0.107671
  O      -1.924795      0.561621     -1.138722
  C      -2.649536      1.767137     -1.007216
  C      -1.135005     -1.467069     -0.283242
  S      -0.302364     -1.803751     -1.832029
  C      -1.732090     -1.625473     -2.932667
  C      -2.886372     -2.338465     -2.621420
  C      -3.966502     -2.304811     -3.499575
  C      -3.860343     -1.562943     -4.677206
  Cl     -5.206263     -1.525167     -5.781688
  C      -2.700055     -0.857846     -4.990987
  C      -1.622169     -0.895666     -4.107259
  C       0.885726     -0.685704     -2.232370
  C       1.151294      0.590331     -1.433508
  N       2.486540      0.031566     -1.085727
  S       3.855429      0.942356     -1.230528
  O       4.947869     -0.022213     -1.296628
  O       3.739035      1.930017     -2.302644
  C       3.911888      1.807569      0.317521
  C       3.742635      3.189714      0.344753
  C       3.797884      3.849317      1.573361
  C       4.023073      3.145478      2.762281
  C       4.108218      3.864882      4.082552
  C       4.192277      1.752523      2.699632
  C       4.140079      1.077299      1.485342
  C       2.333191     -1.123445     -2.012002
  C      -1.051501     -2.409660      0.761644
  O      -0.310902     -3.502720      0.524150
  C      -0.237027     -4.503485      1.521140
  C      -1.740154     -2.187333      1.952211
  H      -4.721692      0.361901      2.775293
  H      -3.302987      1.166103      3.525982
  H      -4.370637      0.119742      4.514982
  H      -3.144864      0.860773      1.221777
  H      -2.228561      2.390231     -0.202217
  H      -2.551148      2.287566     -1.966102
  H      -3.712647      1.569148     -0.803618
  H      -2.948963     -2.922244     -1.699221
  H      -4.879657     -2.857822     -3.281116
  H      -2.644030     -0.286436     -5.918551
  H      -0.691333     -0.360405     -4.308837
  H       0.538967      0.780421     -0.537740
  H       1.223498      1.518258     -2.028510
  H       3.567724      3.732669     -0.584375
  H       3.659818      4.932245      1.608524
  H       3.727575      3.237164      4.899298
  H       5.156422      4.110285      4.314901
  H       3.542080      4.805361      4.061569
  H       4.365686      1.193217      3.621267
  H       4.270775     -0.005147      1.437421
  H       2.977060     -1.033485     -2.905252
  H       2.529383     -2.095760     -1.531811
  H       0.188763     -4.101733      2.453166
  H       0.421649     -5.283503      1.125504
  H      -1.232150     -4.927198      1.726045
  H      -1.717793     -2.893276      2.779599
60
Coordinates from ORCA-job file E -2653.518142323106
  C      -3.943276      0.275381      3.531353
  O      -3.167245     -0.880980      3.296009
  C      -2.528671     -1.010065      2.121711
  C      -2.589944     -0.044624      1.110028
  C      -1.908845     -0.286151     -0.089157
  O      -1.928509      0.564024     -1.124754
  C      -2.643527      1.778210     -1.014825
  C      -1.172770     -1.469262     -0.267745
  S      -0.323546     -1.802210     -1.808556
  C      -1.733324     -1.649166     -2.937681
  C      -2.866013     -2.418954     -2.678666
  C      -3.926586     -2.403766     -3.580823
  C      -3.827021     -1.619851     -4.730669
  Cl     -5.148499     -1.602019     -5.864770
  C      -2.689477     -0.858565     -4.994941
  C      -1.629363     -0.879752     -4.088815
  C       0.858942     -0.676184     -2.207849
  C       1.116969      0.598453     -1.403813
  N       2.465008      0.059834     -1.070519
  S       3.822753      0.990573     -1.245742
  O       4.927225      0.041570     -1.352943
  O       3.663864      1.991932     -2.300769
  C       3.917518      1.837788      0.309909
  C       3.722214      3.214957      0.362103
  C       3.807571      3.859123      1.596432
  C       4.088286      3.144581      2.766915
  C       4.205193      3.848901      4.092038
  C       4.282720      1.756454      2.679415
  C       4.201647      1.096844      1.458491
  C       2.312345     -1.100952     -1.991842
  C      -1.099739     -2.415350      0.774744
  O      -0.360130     -3.510269      0.540588
  C      -0.291033     -4.511660      1.536874
  C      -1.785916     -2.189778      1.966221
  H      -4.741680      0.379830      2.780584
  H      -3.317133      1.181071      3.523800
  H      -4.391564      0.151614      4.522598
  H      -3.157029      0.872010      1.242689
  H      -2.233206      2.400838     -0.204934
  H      -2.519314      2.292149     -1.973597
  H      -3.712506      1.592080     -0.833251
  H      -2.925933     -3.032710     -1.776733
  H      -4.820095     -3.001460     -3.400467
  H      -2.636738     -0.256350     -5.902618
  H      -0.717600     -0.302858     -4.260282
  H       0.508742      0.770489     -0.501076
  H       1.170079      1.532717     -1.989655
  H       3.504681      3.767162     -0.552559
  H       3.650642      4.938499      1.650969
  H       3.866987      3.203608      4.913830
  H       5.255275      4.114518      4.290899
  H       3.618542      4.776892      4.102487
  H       4.498996      1.188289      3.586472
  H       4.351829      0.017809      1.390901
  H       2.954939     -1.012245     -2.885670
  H       2.517931     -2.067998     -1.505273
  H       0.125678     -4.109600      2.472762
  H       0.373757     -5.288434      1.145912
  H      -1.285576     -4.940252      1.733085
  H      -1.768524     -2.896734      2.792667
60
Coordinates from ORCA-job file E -2653.518286852821
  C      -3.988867      0.237344      3.530692
  O      -3.213450     -0.919818      3.297799
  C      -2.570124     -1.045232      2.126122
  C      -2.616350     -0.070470      1.122339
  C      -1.923902     -0.305364     -0.071836
  O      -1.921889      0.553632     -1.101497
  C      -2.630134      1.772701     -0.996084
  C      -1.198615     -1.492134     -0.256623
  S      -0.329340     -1.811750     -1.789061
  C      -1.725950     -1.646735     -2.934722
  C      -2.868957     -2.408061     -2.692180
  C      -3.921138     -2.380122     -3.603617
  C      -3.804288     -1.592648     -4.748678
  Cl     -5.114755     -1.558025     -5.894558
  C      -2.657996     -0.839475     -4.997850
  C      -1.606132     -0.873323     -4.082179
  C       0.861415     -0.692336     -2.173624
  C       1.114982      0.589481     -1.380186
  N       2.469408      0.064424     -1.046248
  S       3.821905      1.002822     -1.247057
  O       4.933678      0.061325     -1.349797
  O       3.646105      1.993498     -2.309452
  C       3.929543      1.864214      0.299563
  C       3.704176      3.236167      0.350306
  C       3.807456      3.887951      1.579034
  C       4.133805      3.185892      2.745359
  C       4.273255      3.900427      4.062218
  C       4.354723      1.801851      2.659208
  C       4.256733      1.135066      1.444101
  C       2.314611     -1.114031     -1.947040
  C      -1.143044     -2.449568      0.776380
  O      -0.411298     -3.548506      0.536875
  C      -0.347909     -4.554704      1.528150
  C      -1.836114     -2.229406      1.965136
  H      -4.786795      0.340983      2.779366
  H      -3.362264      1.142660      3.521751
  H      -4.437441      0.115804      4.521975
  H      -3.175994      0.849648      1.259543
  H      -2.226767      2.390571     -0.179887
  H      -2.490524      2.288451     -1.951405
  H      -3.702311      1.592012     -0.828307
  H      -2.943608     -3.024023     -1.792924
  H      -4.822623     -2.968852     -3.432430
  H      -2.592426     -0.232516     -5.901398
  H      -0.688161     -0.304994     -4.247620
  H       0.505511      0.760216     -0.478065
  H       1.160831      1.521853     -1.968769
  H       3.452572      3.780034     -0.560791
  H       3.631134      4.964339      1.632272
  H       3.967859      3.255537      4.897062
  H       5.323089      4.185792      4.232587
  H       3.670657      4.817884      4.081618
  H       4.608732      1.242507      3.562067
  H       4.429925      0.059280      1.377333
  H       2.961951     -1.044141     -2.838648
  H       2.517701     -2.070962     -1.440283
  H       0.070917     -4.160097      2.466064
  H       0.313014     -5.332439      1.133052
  H      -1.344372     -4.979725      1.721986
  H      -1.832153     -2.944908      2.784359
60
Coordinates from ORCA-job file E -2653.518355252576
  C      -4.052101      0.160113      3.535713
  O      -3.274093     -0.993976      3.296407
  C      -2.621567     -1.105083      2.128044
  C      -2.657322     -0.116563      1.137140
  C      -1.952325     -0.335690     -0.053073
  O      -1.932948      0.541221     -1.068797
  C      -2.640638      1.760085     -0.954404
  C      -1.227776     -1.522256     -0.246919
  S      -0.341350     -1.824164     -1.773994
  C      -1.723658     -1.633596     -2.934235
  C      -2.891661     -2.358816     -2.699823
  C      -3.930454     -2.310343     -3.625352
  C      -3.775300     -1.540993     -4.778081
  Cl     -5.067226     -1.485402     -5.943612
  C      -2.604695     -0.824344     -5.019570
  C      -1.567277     -0.877177     -4.088435
  C       0.863506     -0.715591     -2.129487
  C       1.105852      0.580605     -1.358373
  N       2.462731      0.069693     -1.011694
  S       3.817147      1.000778     -1.235531
  O       4.924746      0.052749     -1.321123
  O       3.640855      1.970913     -2.316125
  C       3.943697      1.891310      0.292780
  C       3.734150      3.266285      0.322276
  C       3.862317      3.938071      1.538088
  C       4.196594      3.252954      2.712409
  C       4.367741      3.989516      4.013074
  C       4.397652      1.864630      2.647767
  C       4.276217      1.178473      1.446009
  C       2.312422     -1.135488     -1.877771
  C      -1.182663     -2.492804      0.773754
  O      -0.448985     -3.588968      0.526359
  C      -0.385985     -4.602934      1.509457
  C      -1.886978     -2.287650      1.958555
  H      -4.845866      0.269189      2.780762
  H      -3.426768      1.066345      3.538027
  H      -4.505847      0.029435      4.523535
  H      -3.215431      0.803091      1.282652
  H      -2.246939      2.367115     -0.125683
  H      -2.490040      2.288607     -1.900996
  H      -3.714760      1.578115     -0.801251
  H      -2.995629     -2.963400     -1.795816
  H      -4.851441     -2.869557     -3.459233
  H      -2.509886     -0.229590     -5.928630
  H      -0.631829     -0.336665     -4.248000
  H       0.489810      0.759990     -0.462281
  H       1.147708      1.504514     -1.960170
  H       3.479302      3.798895     -0.594764
  H       3.701362      5.017575      1.574428
  H       4.059795      3.367994      4.864558
  H       5.425345      4.255970      4.165223
  H       3.784696      4.919642      4.021627
  H       4.657776      1.316957      3.556106
  H       4.437773      0.100005      1.395922
  H       2.969889     -1.096476     -2.763599
  H       2.507147     -2.076363     -1.338828
  H       0.025369     -4.214114      2.453132
  H       0.281522     -5.373612      1.111428
  H      -1.381352     -5.034834      1.693797
  H      -1.892336     -3.014383      2.768120
60
Coordinates from ORCA-job file E -2653.518284638326
  C      -4.179516      0.007096      3.558802
  O      -3.398826     -1.141120      3.299434
  C      -2.732101     -1.223050      2.135442
  C      -2.753559     -0.209099      1.169763
  C      -2.027380     -0.395726     -0.013665
  O      -1.984710      0.515890     -0.998997
  C      -2.709841      1.722529     -0.863801
  C      -1.300995     -1.580022     -0.227482
  S      -0.372426     -1.845380     -1.738203
  C      -1.714221     -1.601928     -2.937204
  C      -2.925642     -2.263316     -2.738057
  C      -3.923653     -2.178817     -3.704465
  C      -3.685552     -1.439933     -4.863048
  Cl     -4.923639     -1.353637     -6.083207
  C      -2.473577     -0.784423     -5.068060
  C      -1.478420     -0.871450     -4.094389
  C       0.860305     -0.757944     -2.023166
  C       1.079198      0.562143     -1.291450
  N       2.440801      0.078208     -0.926348
  S       3.795453      0.991628     -1.203477
  O       4.892745      0.030125     -1.259977
  O       3.611054      1.915333     -2.321493
  C       3.969107      1.943250      0.282591
  C       3.786727      3.322301      0.267010
  C       3.976921      4.036830      1.450732
  C       4.346764      3.390793      2.636809
  C       4.597423      4.173293      3.896891
  C       4.513315      1.996356      2.618540
  C       4.329471      1.268036      1.450311
  C       2.297610     -1.176928     -1.720764
  C      -1.272670     -2.576181      0.768175
  O      -0.536746     -3.667307      0.502211
  C      -0.471537     -4.696877      1.468747
  C      -1.996082     -2.401637      1.946307
  H      -4.968274      0.130285      2.800732
  H      -3.555718      0.914056      3.583448
  H      -4.639030     -0.144154      4.541154
  H      -3.311488      0.707881      1.332429
  H      -2.346452      2.308880     -0.006668
  H      -2.542993      2.283052     -1.789110
  H      -3.785096      1.523106     -0.743593
  H      -3.094444     -2.847531     -1.830595
  H      -4.877970     -2.687085     -3.566177
  H      -2.313394     -0.212961     -5.982870
  H      -0.511862     -0.381284     -4.225719
  H       0.453001      0.752935     -0.404188
  H       1.109791      1.472439     -1.914660
  H       3.511296      3.828473     -0.659243
  H       3.841884      5.120508      1.451114
  H       4.306243      3.598699      4.786491
  H       5.668990      4.407989      3.994227
  H       4.046809      5.122996      3.890488
  H       4.799234      1.475680      3.535087
  H       4.471130      0.185929      1.435673
  H       2.975370     -1.201067     -2.591301
  H       2.472595     -2.082602     -1.118317
  H      -0.071148     -4.319539      2.421923
  H       0.206574     -5.454359      1.062851
  H      -1.464242     -5.141042      1.638049
  H      -2.016607     -3.150321      2.735757
60
Coordinates from ORCA-job file E -2653.517914795244
  C      -4.240754     -0.133952      3.613038
  O      -3.473590     -1.283060      3.317877
  C      -2.809326     -1.339783      2.149506
  C      -2.824991     -0.301986      1.209017
  C      -2.093325     -0.459830      0.024088
  O      -2.036272      0.485978     -0.929003
  C      -2.778500      1.679140     -0.766509
  C      -1.370077     -1.644388     -0.216647
  S      -0.404977     -1.876734     -1.712232
  C      -1.701984     -1.560891     -2.946592
  C      -2.958095     -2.144012     -2.787405
  C      -3.912941     -2.003939     -3.790048
  C      -3.587543     -1.291066     -4.944163
  Cl     -4.770668     -1.152102     -6.212637
  C      -2.332824     -0.709859     -5.106930
  C      -1.382892     -0.849721     -4.095200
  C       0.859515     -0.817977     -1.918226
  C       1.062001      0.523262     -1.226442
  N       2.420314      0.054705     -0.834906
  S       3.782167      0.939660     -1.148974
  O       4.866247     -0.037122     -1.140018
  O       3.615876      1.799795     -2.317858
  C       3.976886      1.971725      0.279158
  C       3.832254      3.352489      0.190284
  C       4.065135      4.125069      1.330086
  C       4.442414      3.535065      2.543022
  C       4.753550      4.377254      3.749781
  C       4.564117      2.136763      2.599755
  C       4.336397      1.351196      1.477437
  C       2.279554     -1.243453     -1.558559
  C      -1.352520     -2.665436      0.753166
  O      -0.623829     -3.755134      0.459239
  C      -0.549411     -4.800291      1.408391
  C      -2.080007     -2.517606      1.932149
  H      -5.035451      0.013277      2.865512
  H      -3.608679      0.766719      3.651970
  H      -4.691522     -0.303704      4.596561
  H      -3.377660      0.613972      1.394835
  H      -2.437548      2.243549      0.114547
  H      -2.605270      2.271781     -1.670571
  H      -3.852861      1.463004     -0.669135
  H      -3.196461     -2.708973     -1.883424
  H      -4.902562     -2.448260     -3.684279
  H      -2.103723     -0.158655     -6.019520
  H      -0.384603     -0.419418     -4.190566
  H       0.422399      0.732865     -0.352722
  H       1.093670      1.418714     -1.871365
  H       3.559892      3.818026     -0.758237
  H       3.963473      5.210916      1.272777
  H       4.463803      3.865911      4.677592
  H       5.835726      4.573116      3.809129
  H       4.240918      5.346805      3.701997
  H       4.852902      1.656380      3.537301
  H       4.450722      0.266829      1.519446
  H       2.981146     -1.331531     -2.405442
  H       2.425248     -2.112773     -0.897383
  H      -0.142412     -4.436972      2.364373
  H       0.126614     -5.550085      0.984467
  H      -1.540360     -5.248354      1.578253
  H      -2.109304     -3.286902      2.701739
60
Coordinates from ORCA-job file E -2653.517325459630
  C      -4.017077     -0.135524      3.749026
  O      -3.323812     -1.312389      3.384471
  C      -2.715964     -1.376466      2.183778
  C      -2.753061     -0.335225      1.248180
  C      -2.078542     -0.499321      0.029966
  O      -2.048377      0.459304     -0.909425
  C      -2.809302      1.634481     -0.710995
  C      -1.384081     -1.699232     -0.243934
  S      -0.430924     -1.945633     -1.746909
  C      -1.697947     -1.531420     -2.988378
  C      -2.989980     -2.031034     -2.853165
  C      -3.919931     -1.792392     -3.860974
  C      -3.531925     -1.067083     -4.990155
  Cl     -4.692224     -0.816074     -6.263680
  C      -2.240787     -0.564213     -5.122177
  C      -1.317609     -0.801163     -4.104425
  C       0.876677     -0.925301     -1.889439
  C       1.080201      0.424968     -1.222539
  N       2.409211     -0.066970     -0.779880
  S       3.790306      0.783416     -1.054776
  O       4.854650     -0.203182     -0.915937
  O       3.713409      1.562926     -2.286797
  C       3.919069      1.913653      0.303984
  C       3.833655      3.287618      0.101612
  C       4.027350      4.139611      1.192097
  C       4.313274      3.633580      2.466231
  C       4.592646      4.553295      3.623472
  C       4.375729      2.240247      2.637477
  C       4.183526      1.375893      1.566208
  C       2.271851     -1.377591     -1.480681
  C      -1.355902     -2.727718      0.718037
  O      -0.674124     -3.837084      0.383246
  C      -0.586234     -4.890649      1.323606
  C      -2.029654     -2.571916      1.926578
  H      -4.842362      0.066405      3.048660
  H      -3.341026      0.733061      3.773494
  H      -4.421872     -0.308859      4.751902
  H      -3.281168      0.590111      1.461165
  H      -2.457068      2.194189      0.170317
  H      -2.671647      2.245044     -1.610000
  H      -3.876749      1.397200     -0.587884
  H      -3.281205     -2.596835     -1.964961
  H      -4.941064     -2.164139     -3.779779
  H      -1.962193     -0.004892     -6.016017
  H      -0.291349     -0.433075     -4.160151
  H       0.419508      0.668800     -0.373856
  H       1.146742      1.309037     -1.883608
  H       3.637062      3.687302     -0.894598
  H       3.967166      5.220529      1.047724
  H       4.242729      4.118091      4.569041
  H       5.677790      4.715471      3.721637
  H       4.120336      5.534348      3.483022
  H       4.588441      1.823964      3.624631
  H       4.254329      0.295365      1.696048
  H       2.999585     -1.503113     -2.300915
  H       2.377416     -2.234784     -0.795162
  H      -0.126805     -4.541230      2.261186
  H       0.046667     -5.658931      0.866131
  H      -1.581692     -5.309146      1.537316
  H      -2.045672     -3.345325      2.692459
60
Coordinates from ORCA-job file E -2653.518530803589
  C      -3.862166      0.016713      3.739183
  O      -3.184997     -1.175064      3.393534
  C      -2.592163     -1.274064      2.188881
  C      -2.635315     -0.257370      1.227885
  C      -1.986213     -0.458609      0.002428
  O      -1.977853      0.464457     -0.969561
  C      -2.734147      1.645746     -0.798508
  C      -1.313923     -1.668846     -0.257703
  S      -0.402687     -1.954548     -1.778451
  C      -1.700825     -1.548856     -2.986581
  C      -2.977332     -2.079266     -2.821388
  C      -3.944989     -1.831764     -3.791421
  C      -3.609847     -1.063772     -4.909538
  Cl     -4.824985     -0.776398     -6.123815
  C      -2.331751     -0.534251     -5.072488
  C      -1.368271     -0.784981     -4.096239
  C       0.903103     -0.929214     -1.976472
  C       1.130421      0.395409     -1.265650
  N       2.456653     -0.126514     -0.849306
  S       3.830025      0.750761     -1.089091
  O       4.918011     -0.215239     -0.975537
  O       3.750145      1.566661     -2.299456
  C       3.896407      1.844805      0.302561
  C       3.779853      3.219838      0.124869
  C       3.894445      4.053116      1.239103
  C       4.129636      3.527246      2.515093
  C       4.307346      4.429495      3.705851
  C       4.232833      2.133611      2.661275
  C       4.121528      1.286962      1.563742
  C       2.310189     -1.394248     -1.623289
  C      -1.278915     -2.675870      0.728141
  O      -0.614124     -3.800454      0.412339
  C      -0.534631     -4.835764      1.374039
  C      -1.923567     -2.482408      1.947643
  H      -4.693615      0.212238      3.044116
  H      -3.176857      0.878343      3.737971
  H      -4.257902     -0.130842      4.749566
  H      -3.156126      0.675726      1.424011
  H      -2.356728      2.238140      0.050577
  H      -2.619933      2.220542     -1.723839
  H      -3.798019      1.414243     -0.637657
  H      -3.229920     -2.668914     -1.936956
  H      -4.956146     -2.224765     -3.686895
  H      -2.094225      0.057576     -5.957104
  H      -0.349946     -0.396089     -4.174717
  H       0.484933      0.622419     -0.400451
  H       1.199932      1.297804     -1.902175
  H       3.612327      3.632494     -0.870983
  H       3.802531      5.134094      1.114063
  H       3.930576      3.954574      4.621620
  H       5.377924      4.637267      3.861163
  H       3.797888      5.391691      3.564066
  H       4.403030      1.704313      3.650912
  H       4.211797      0.205673      1.674737
  H       3.018910     -1.466409     -2.467216
  H       2.432547     -2.290024     -0.991652
  H      -0.061492     -4.473424      2.299698
  H       0.080768     -5.624754      0.928715
  H      -1.534358     -5.233571      1.605565
  H      -1.929789     -3.235668      2.732293
60
Coordinates from ORCA-job file E -2653.519025652014
  C      -3.900989     -0.059437      3.712302
  O      -3.204489     -1.245656      3.390441
  C      -2.590003     -1.334432      2.200128
  C      -2.612540     -0.306550      1.251046
  C      -1.946917     -0.499050      0.033893
  O      -1.922872      0.419513     -0.943972
  C      -2.650168      1.621211     -0.789228
  C      -1.288606     -1.705140     -0.239121
  S      -0.376435     -1.962748     -1.767266
  C      -1.669622     -1.491368     -2.952352
  C      -2.964682     -1.974658     -2.768325
  C      -3.953276     -1.651015     -3.694107
  C      -3.623782     -0.852586     -4.790171
  Cl     -4.870638     -0.417538     -5.925802
  C      -2.324469     -0.387850     -4.986369
  C      -1.336751     -0.718769     -4.058586
  C       0.947597     -0.975929     -1.967212
  C       1.205129      0.342123     -1.250647
  N       2.525860     -0.203252     -0.831222
  S       3.915770      0.663433     -1.084321
  O       5.009643     -0.290721     -0.916855
  O       3.860230      1.450946     -2.317009
  C       3.917635      1.799328      0.271573
  C       3.839026      3.165751      0.030002
  C       3.892989      4.041349      1.112655
  C       4.020253      3.563608      2.421919
  C       4.121411      4.515119      3.581643
  C       4.085533      2.176927      2.632695
  C       4.039859      1.288450      1.565270
  C       2.347316     -1.466837     -1.608190
  C      -1.264052     -2.723563      0.737448
  O      -0.597997     -3.845904      0.420948
  C      -0.522000     -4.885441      1.377095
  C      -1.916579     -2.539106      1.955502
  H      -4.726694      0.118335      3.006074
  H      -3.226943      0.811036      3.709313
  H      -4.308507     -0.200761      4.718482
  H      -3.132937      0.625275      1.449341
  H      -2.233861      2.229073      0.027681
  H      -2.550439      2.163636     -1.734581
  H      -3.712734      1.415485     -0.590212
  H      -3.214853     -2.584786     -1.898107
  H      -4.976248     -2.006619     -3.567212
  H      -2.091708      0.233282     -5.851542
  H      -0.308491     -0.365868     -4.169244
  H       0.566438      0.578468     -0.382358
  H       1.293124      1.240921     -1.886396
  H       3.750214      3.535945     -0.992155
  H       3.834690      5.117409      0.936639
  H       3.665796      4.089662      4.485650
  H       5.179735      4.716454      3.810061
  H       3.641109      5.475747      3.355783
  H       4.170582      1.788788      3.649955
  H       4.095059      0.209948      1.724725
  H       3.058550     -1.549657     -2.449645
  H       2.447694     -2.362966     -0.975169
  H      -0.049059     -4.531484      2.305316
  H       0.091283     -5.672661      0.927991
  H      -1.521706     -5.284729      1.605733
  H      -1.931476     -3.300144      2.731572
60
Coordinates from ORCA-job file E -2653.519183090733
  C      -3.807296      0.013698      3.713883
  O      -3.129972     -1.184920      3.395258
  C      -2.518301     -1.288892      2.205039
  C      -2.510492     -0.258292      1.258982
  C      -1.849185     -0.466031      0.042162
  O      -1.784379      0.464398     -0.923272
  C      -2.505146      1.671553     -0.779735
  C      -1.224620     -1.691069     -0.236183
  S      -0.337778     -1.979988     -1.773201
  C      -1.648605     -1.498436     -2.934195
  C      -2.929699     -2.021519     -2.756049
  C      -3.945693     -1.659397     -3.637642
  C      -3.656832     -0.785026     -4.685798
  Cl     -4.934498     -0.292320     -5.762444
  C      -2.368872     -0.291256     -4.884751
  C      -1.354546     -0.658258     -4.000490
  C       0.991668     -0.998609     -2.008580
  C       1.276857      0.290168     -1.248635
  N       2.595767     -0.285933     -0.857275
  S       3.980707      0.597481     -1.095833
  O       5.090891     -0.330756     -0.895840
  O       3.938505      1.368514     -2.340235
  C       3.907127      1.742780      0.249891
  C       3.790704      3.104345     -0.007681
  C       3.756415      3.988317      1.069319
  C       3.838269      3.523418      2.387309
  C       3.835937      4.485031      3.543718
  C       3.950059      2.142285      2.612650
  C       3.988442      1.246095      1.551974
  C       2.394668     -1.511461     -1.689468
  C      -1.227812     -2.710842      0.739282
  O      -0.602563     -3.854220      0.416266
  C      -0.565006     -4.900996      1.366150
  C      -1.875211     -2.510105      1.957807
  H      -4.631877      0.199885      3.008770
  H      -3.121282      0.874548      3.705941
  H      -4.215591     -0.118251      4.721138
  H      -2.998139      0.690117      1.462427
  H      -2.106404      2.270339      0.052682
  H      -2.375103      2.219414     -1.718455
  H      -3.574216      1.471957     -0.612276
  H      -3.150953     -2.685074     -1.917331
  H      -4.958943     -2.042361     -3.510477
  H      -2.164329      0.381798     -5.717798
  H      -0.335207     -0.283761     -4.114800
  H       0.650716      0.509306     -0.367103
  H       1.372409      1.205784     -1.858193
  H       3.728579      3.461057     -1.036463
  H       3.662416      5.059821      0.881620
  H       3.364235      4.039173      4.429272
  H       4.870594      4.746561      3.815863
  H       3.313072      5.415780      3.289300
  H       4.004529      1.765794      3.636309
  H       4.073431      0.171239      1.723234
  H       3.091199     -1.558873     -2.545846
  H       2.494584     -2.436867     -1.100697
  H      -0.073584     -4.572794      2.294179
  H       0.012513     -5.710536      0.909344
  H      -1.579316     -5.260021      1.597510
  H      -1.912842     -3.273795      2.730966
60
Coordinates from ORCA-job file E -2653.519269843634
  C      -3.820758      0.040434      3.704930
  O      -3.143497     -1.159180      3.389435
  C      -2.519538     -1.262632      2.204989
  C      -2.489134     -0.226420      1.264536
  C      -1.813156     -0.435654      0.055866
  O      -1.723267      0.499929     -0.903829
  C      -2.448031      1.706616     -0.775763
  C      -1.197927     -1.667197     -0.220061
  S      -0.321111     -1.959102     -1.761232
  C      -1.649305     -1.496532     -2.909022
  C      -2.915853     -2.053707     -2.730209
  C      -3.939478     -1.734481     -3.619033
  C      -3.673210     -0.868042     -4.679271
  Cl     -4.950573     -0.455922     -5.788993
  C      -2.401944     -0.331172     -4.873467
  C      -1.381060     -0.652640     -3.978698
  C       1.003398     -0.969642     -2.021003
  C       1.297493      0.311993     -1.250634
  N       2.619738     -0.267940     -0.875131
  S       3.993250      0.628067     -1.129199
  O       5.115556     -0.289621     -0.955382
  O       3.925087      1.401613     -2.371020
  C       3.922393      1.755487      0.234632
  C       3.763035      3.118012      0.002002
  C       3.717242      3.983178      1.095125
  C       3.832812      3.499598      2.404318
  C       3.813857      4.440590      3.578270
  C       3.991888      2.119100      2.603659
  C       4.040725      1.242253      1.527538
  C       2.410642     -1.484074     -1.717162
  C      -1.231490     -2.694509      0.744946
  O      -0.628387     -3.848128      0.415884
  C      -0.630618     -4.907462      1.351408
  C      -1.891647     -2.492036      1.956115
  H      -4.627847      0.238490      2.982921
  H      -3.129889      0.897163      3.721215
  H      -4.252551     -0.098858      4.701444
  H      -2.965630      0.727809      1.467788
  H      -2.077810      2.302486      0.072099
  H      -2.288373      2.258445     -1.707648
  H      -3.521781      1.504739     -0.645220
  H      -3.115867     -2.726900     -1.893565
  H      -4.937617     -2.155940     -3.494826
  H      -2.213726      0.336315     -5.715006
  H      -0.373041     -0.250548     -4.098667
  H       0.678935      0.524494     -0.363481
  H       1.391327      1.232286     -1.853394
  H       3.670665      3.488276     -1.019613
  H       3.587667      5.054195      0.926860
  H       3.369618      3.962593      4.461237
  H       4.841512      4.735935      3.842091
  H       3.252692      5.355029      3.346365
  H       4.081056      1.729225      3.619802
  H       4.163236      0.168485      1.681389
  H       3.097189     -1.521302     -2.581531
  H       2.515750     -2.416207     -1.140142
  H      -0.133941     -4.608961      2.286778
  H      -0.076887     -5.729232      0.886447
  H      -1.657674     -5.236226      1.572137
  H      -1.954145     -3.262569      2.721478
60
Coordinates from ORCA-job file E -2653.519315034668
  C      -3.825681      0.010423      3.719560
  O      -3.151978     -1.188907      3.394424
  C      -2.528608     -1.287034      2.208078
  C      -2.495856     -0.246076      1.272786
  C      -1.816070     -0.449183      0.065172
  O      -1.729858      0.490869     -0.889344
  C      -2.472739      1.686244     -0.759360
  C      -1.201271     -1.681176     -0.215330
  S      -0.320884     -1.965383     -1.757536
  C      -1.644137     -1.484703     -2.905234
  C      -2.921514     -2.013252     -2.721811
  C      -3.935723     -1.686307     -3.618512
  C      -3.649137     -0.839777     -4.690273
  Cl     -4.915506     -0.422266     -5.810280
  C      -2.368697     -0.325364     -4.884161
  C      -1.357304     -0.656462     -3.982159
  C       1.007857     -0.975970     -2.002789
  C       1.300798      0.307319     -1.235666
  N       2.622663     -0.271783     -0.861619
  S       3.995023      0.620950     -1.118960
  O       5.117196     -0.293539     -0.932409
  O       3.931250      1.379598     -2.369214
  C       3.925442      1.764535      0.232158
  C       3.763454      3.124619     -0.013048
  C       3.724187      4.001116      1.071640
  C       3.846897      3.531472      2.385181
  C       3.836756      4.484264      3.549687
  C       4.006832      2.152659      2.597375
  C       4.050696      1.264526      1.529836
  C       2.414821     -1.490691     -1.698991
  C      -1.246768     -2.716631      0.740558
  O      -0.652147     -3.873472      0.404223
  C      -0.663663     -4.937750      1.334861
  C      -1.907368     -2.518050      1.952012
  H      -4.629337      0.218205      2.996189
  H      -3.131434      0.864264      3.746325
  H      -4.261095     -0.136317      4.713496
  H      -2.973527      0.707351      1.478375
  H      -2.119684      2.283061      0.095454
  H      -2.313026      2.246149     -1.686600
  H      -3.544897      1.468892     -0.639631
  H      -3.136788     -2.672132     -1.877439
  H      -4.942454     -2.085333     -3.491266
  H      -2.166405      0.331348     -5.730873
  H      -0.342235     -0.270383     -4.098193
  H       0.682620      0.521693     -0.349151
  H       1.393593      1.227534     -1.839980
  H       3.667834      3.485504     -1.037859
  H       3.593586      5.070384      0.893299
  H       3.392943      4.017100      4.438717
  H       4.866558      4.777018      3.807673
  H       3.279140      5.399148      3.310270
  H       4.100109      1.772532      3.616851
  H       4.175701      0.192912      1.694385
  H       3.100439     -1.531342     -2.564058
  H       2.521749     -2.421293     -1.119366
  H      -0.155097     -4.651328      2.267845
  H      -0.126593     -5.766081      0.861618
  H      -1.694261     -5.250718      1.562247
  H      -1.976403     -3.292989      2.712318
60
Coordinates from ORCA-job file E -2653.519187579104
  C      -3.862229     -0.055487      3.732127
  O      -3.189471     -1.253628      3.400112
  C      -2.561098     -1.342264      2.215096
  C      -2.512247     -0.289256      1.294220
  C      -1.821237     -0.481198      0.091279
  O      -1.721382      0.470742     -0.849219
  C      -2.480231      1.656047     -0.720288
  C      -1.211059     -1.713126     -0.199022
  S      -0.314183     -1.976589     -1.738104
  C      -1.623742     -1.466667     -2.890202
  C      -2.917539     -1.953429     -2.707544
  C      -3.917717     -1.603702     -3.611240
  C      -3.601801     -0.774914     -4.689060
  Cl     -4.852533     -0.326907     -5.814289
  C      -2.306092     -0.299276     -4.880536
  C      -1.308736     -0.654972     -3.972311
  C       1.019272     -0.990419     -1.958413
  C       1.309834      0.295116     -1.195478
  N       2.637106     -0.276666     -0.830715
  S       4.002624      0.617602     -1.113963
  O       5.134402     -0.281873     -0.914992
  O       3.926299      1.348030     -2.379455
  C       3.937175      1.788702      0.213919
  C       3.762208      3.142579     -0.053824
  C       3.732061      4.038782      1.014776
  C       3.873577      3.595126      2.335367
  C       3.873534      4.569402      3.481731
  C       4.044298      2.221111      2.570670
  C       4.081429      1.313449      1.519181
  C       2.426457     -1.504027     -1.654964
  C      -1.282277     -2.764591      0.737862
  O      -0.704954     -3.926698      0.387239
  C      -0.746321     -5.005713      1.300603
  C      -1.952017     -2.576131      1.946142
  H      -4.659845      0.161184      3.004637
  H      -3.165627      0.796093      3.772108
  H      -4.304689     -0.209853      4.721776
  H      -2.985833      0.664859      1.506609
  H      -2.155787      2.246938      0.149782
  H      -2.305431      2.229692     -1.636411
  H      -3.552595      1.425271     -0.628594
  H      -3.157144     -2.594724     -1.856253
  H      -4.936981     -1.968583     -3.482419
  H      -2.081894      0.348092     -5.728873
  H      -0.283726     -0.294105     -4.084064
  H       0.696063      0.506706     -0.305116
  H       1.393065      1.216106     -1.800761
  H       3.654478      3.485439     -1.083762
  H       3.592898      5.103762      0.818223
  H       3.433384      4.120358      4.382003
  H       4.905360      4.864115      3.728840
  H       3.316388      5.480775      3.227900
  H       4.149124      1.859436      3.595782
  H       4.216218      0.246222      1.702603
  H       3.109085     -1.554550     -2.522152
  H       2.536584     -2.428470     -1.065968
  H      -0.226243     -4.750269      2.236301
  H      -0.236110     -5.842035      0.811980
  H      -1.785251     -5.290531      1.526675
  H      -2.038901     -3.361085      2.693945
60
Coordinates from ORCA-job file E -2653.519161639249
  C      -3.908116     -0.112594      3.736386
  O      -3.238968     -1.310739      3.397352
  C      -2.605222     -1.390407      2.214507
  C      -2.542630     -0.326552      1.307141
  C      -1.840891     -0.507507      0.108604
  O      -1.723719      0.456342     -0.818160
  C      -2.482028      1.641724     -0.686767
  C      -1.232215     -1.738161     -0.189250
  S      -0.315161     -1.981386     -1.721124
  C      -1.613408     -1.462210     -2.882870
  C      -2.913730     -1.935638     -2.710764
  C      -3.902676     -1.576775     -3.622985
  C      -3.569779     -0.752626     -4.699158
  Cl     -4.807786     -0.293104     -5.833393
  C      -2.267355     -0.291958     -4.881525
  C      -1.281321     -0.656423     -3.964441
  C       1.016364     -0.991734     -1.915811
  C       1.302214      0.293163     -1.150775
  N       2.636732     -0.269653     -0.797777
  S       3.997109      0.626351     -1.102843
  O       5.135439     -0.264820     -0.903105
  O       3.906367      1.340021     -2.376723
  C       3.945948      1.815372      0.209031
  C       3.763441      3.164483     -0.075127
  C       3.756732      4.076874      0.979764
  C       3.928213      3.653947      2.303497
  C       3.955803      4.645766      3.434148
  C       4.103387      2.283431      2.555908
  C       4.118008      1.359715      1.517978
  C       2.425060     -1.501465     -1.615342
  C      -1.319389     -2.801334      0.732567
  O      -0.743052     -3.961271      0.373493
  C      -0.813592     -5.057098      1.265021
  C      -2.000985     -2.624422      1.936100
  H      -4.700939      0.113938      3.006875
  H      -3.207720      0.735327      3.787631
  H      -4.355942     -0.273328      4.722588
  H      -3.013174      0.627460      1.526422
  H      -2.173756      2.220695      0.196855
  H      -2.288604      2.227793     -1.591218
  H      -3.556484      1.412197     -0.618540
  H      -3.167908     -2.570323     -1.858837
  H      -4.926952     -1.929811     -3.500866
  H      -2.029380      0.350654     -5.729738
  H      -0.252119     -0.305497     -4.068700
  H       0.693423      0.496664     -0.254836
  H       1.373081      1.216957     -1.753115
  H       3.635081      3.492652     -1.107529
  H       3.613487      5.138771      0.769777
  H       3.525760      4.215157      4.348307
  H       4.994177      4.933843      3.660875
  H       3.403280      5.558316      3.174814
  H       4.230175      1.936945      3.583831
  H       4.259637      0.295712      1.714862
  H       3.104490     -1.555063     -2.484941
  H       2.540515     -2.422556     -1.022311
  H      -0.306654     -4.825921      2.214019
  H      -0.304455     -5.889723      0.769284
  H      -1.859530     -5.333354      1.467739
  H      -2.098281     -3.416817      2.674696
60
Coordinates from ORCA-job file E -2653.519050573912
  C      -4.025851     -0.257999      3.749493
  O      -3.377382     -1.459355      3.383630
  C      -2.721042     -1.511235      2.211780
  C      -2.619193     -0.418080      1.343651
  C      -1.888351     -0.569260      0.157929
  O      -1.731660      0.421785     -0.735491
  C      -2.484101      1.610094     -0.597583
  C      -1.284758     -1.796085     -0.160999
  S      -0.317189     -1.990168     -1.670905
  C      -1.585211     -1.454675     -2.861366
  C      -2.894113     -1.919353     -2.730567
  C      -3.854719     -1.542764     -3.665230
  C      -3.486385     -0.711323     -4.723528
  Cl     -4.691940     -0.227905     -5.881858
  C      -2.174206     -0.265724     -4.869715
  C      -1.216598     -0.646429     -3.929459
  C       1.007464     -0.991756     -1.799122
  C       1.280337      0.291045     -1.027437
  N       2.631289     -0.250226     -0.699814
  S       3.976750      0.649475     -1.061445
  O       5.129938     -0.223953     -0.866189
  O       3.846047      1.323815     -2.353243
  C       3.964335      1.881519      0.208398
  C       3.756148      3.215689     -0.120736
  C       3.814222      4.173135      0.890903
  C       4.076732      3.809108      2.216918
  C       4.185045      4.849537      3.297424
  C       4.270184      2.450530      2.516832
  C       4.221255      1.482131      1.521787
  C       2.419011     -1.492017     -1.503355
  C      -1.411722     -2.888645      0.719698
  O      -0.837648     -4.040635      0.336411
  C      -1.006102     -5.187212      1.147373
  C      -2.129694     -2.745178      1.906458
  H      -4.798407      0.011518      3.013509
  H      -3.306668      0.570235      3.844201
  H      -4.496155     -0.440801      4.721240
  H      -3.084297      0.534088      1.581012
  H      -2.207142      2.161263      0.313309
  H      -2.249407      2.222235     -1.474643
  H      -3.562193      1.388132     -0.578525
  H      -3.178404     -2.555694     -1.889804
  H      -4.885404     -1.886551     -3.572857
  H      -1.906325      0.375437     -5.710109
  H      -0.181224     -0.308156     -4.008067
  H       0.684092      0.474331     -0.118180
  H       1.321725      1.221628     -1.621236
  H       3.562646      3.499981     -1.156061
  H       3.655068      5.224829      0.643865
  H       3.792309      4.471944      4.251189
  H       5.240511      5.118834      3.460108
  H       3.642361      5.763597      3.024316
  H       4.467278      2.149004      3.547980
  H       4.386695      0.428541      1.754185
  H       3.093291     -1.551614     -2.376795
  H       2.546312     -2.405362     -0.901232
  H      -0.552580     -5.038179      2.138575
  H      -0.496009     -6.005952      0.630327
  H      -2.072179     -5.432614      1.267195
  H      -2.256789     -3.558561      2.617355
60
Coordinates from ORCA-job file E -2653.519236492719
  C      -4.004051     -0.213589      3.742953
  O      -3.363066     -1.419299      3.379031
  C      -2.706359     -1.476860      2.208260
  C      -2.607611     -0.388915      1.333246
  C      -1.883185     -0.547724      0.144527
  O      -1.732156      0.436140     -0.757801
  C      -2.468498      1.633891     -0.614718
  C      -1.279018     -1.775591     -0.168394
  S      -0.321798     -1.981917     -1.681242
  C      -1.597615     -1.466753     -2.870964
  C      -2.896008     -1.960363     -2.741730
  C      -3.863722     -1.604507     -3.677461
  C      -3.511948     -0.764961     -4.734838
  Cl     -4.723988     -0.309429     -5.897994
  C      -2.209989     -0.289807     -4.878562
  C      -1.245311     -0.649366     -3.937362
  C       1.000332     -0.979335     -1.826218
  C       1.275136      0.299825     -1.048660
  N       2.625640     -0.244773     -0.721989
  S       3.969627      0.660755     -1.075467
  O       5.121701     -0.217962     -0.898395
  O       3.833446      1.356529     -2.355647
  C       3.958502      1.871753      0.214314
  C       3.743880      3.210093     -0.094781
  C       3.795751      4.151998      0.931805
  C       4.061561      3.768326      2.251499
  C       4.162656      4.792514      3.348340
  C       4.264094      2.406757      2.530422
  C       4.219763      1.453779      1.520606
  C       2.413626     -1.479220     -1.537423
  C      -1.396733     -2.860814      0.722641
  O      -0.813690     -4.011220      0.350010
  C      -0.965953     -5.148688      1.175812
  C      -2.111522     -2.711227      1.910354
  H      -4.774422      0.061145      3.006610
  H      -3.279163      0.609523      3.837753
  H      -4.476415     -0.392908      4.714278
  H      -3.072705      0.564142      1.566830
  H      -2.162848      2.189739      0.284090
  H      -2.248305      2.234720     -1.503220
  H      -3.547955      1.423743     -0.567881
  H      -3.165743     -2.607110     -1.904014
  H      -4.886102     -1.973270     -3.588591
  H      -1.954992      0.356876     -5.718746
  H      -0.216708     -0.291130     -4.016000
  H       0.679880      0.480091     -0.138365
  H       1.318121      1.232477     -1.638671
  H       3.545445      3.507560     -1.125410
  H       3.629573      5.206426      0.701545
  H       3.775092      4.396200      4.296434
  H       5.216011      5.068592      3.512882
  H       3.611554      5.706055      3.090931
  H       4.466761      2.091818      3.556416
  H       4.390527      0.397348      1.736042
  H       3.086481     -1.528765     -2.412369
  H       2.542768     -2.398112     -0.944245
  H      -0.512872     -4.981563      2.164439
  H      -0.446535     -5.967754      0.668676
  H      -2.028758     -5.405893      1.300174
  H      -2.232183     -3.519992      2.627739
60
Coordinates from ORCA-job file E -2653.519265468331
  C      -4.033817     -0.229316      3.739900
  O      -3.411274     -1.440355      3.362691
  C      -2.738593     -1.490084      2.200628
  C      -2.626221     -0.395849      1.334835
  C      -1.891097     -0.548726      0.151778
  O      -1.734303      0.437358     -0.746660
  C      -2.470556      1.635206     -0.605199
  C      -1.286994     -1.775889     -0.162591
  S      -0.323321     -1.979710     -1.669856
  C      -1.595259     -1.471784     -2.866770
  C      -2.889392     -1.978683     -2.747594
  C      -3.852475     -1.634836     -3.692838
  C      -3.499706     -0.793628     -4.748659
  Cl     -4.704622     -0.353125     -5.925406
  C      -2.202274     -0.302867     -4.880268
  C      -1.242201     -0.650599     -3.930021
  C       0.995997     -0.970580     -1.805970
  C       1.266366      0.304296     -1.020658
  N       2.622274     -0.234464     -0.703897
  S       3.955082      0.680340     -1.073823
  O       5.111954     -0.196792     -0.922892
  O       3.791545      1.384173     -2.346417
  C       3.963444      1.886607      0.219770
  C       3.725117      3.222270     -0.085269
  C       3.795329      4.166587      0.938041
  C       4.105240      3.787572      2.249103
  C       4.228416      4.814974      3.340862
  C       4.331954      2.429013      2.524245
  C       4.269232      1.473623      1.517583
  C       2.411726     -1.466415     -1.524891
  C      -1.415712     -2.866437      0.720478
  O      -0.826225     -4.013725      0.349508
  C      -1.001801     -5.159683      1.157864
  C      -2.144007     -2.724135      1.900542
  H      -4.789185      0.075091      2.999692
  H      -3.293282      0.576332      3.859788
  H      -4.522040     -0.417242      4.701660
  H      -3.091735      0.556568      1.570354
  H      -2.167424      2.188492      0.296387
  H      -2.245802      2.237401     -1.491582
  H      -3.550222      1.425772     -0.563834
  H      -3.158332     -2.630157     -1.913239
  H      -4.871160     -2.015765     -3.613957
  H      -1.946899      0.345282     -5.719183
  H      -0.215971     -0.283783     -4.000732
  H       0.676466      0.473432     -0.104967
  H       1.299859      1.242116     -1.603374
  H       3.492144      3.513670     -1.110264
  H       3.610014      5.218610      0.711536
  H       3.863230      4.420091      4.298379
  H       5.284672      5.093508      3.480446
  H       3.669627      5.726677      3.093719
  H       4.571605      2.120171      3.544049
  H       4.459237      0.419572      1.728311
  H       3.082322     -1.509499     -2.401734
  H       2.546272     -2.387231     -0.935632
  H      -0.567898     -5.008713      2.157850
  H      -0.477541     -5.976338      0.651554
  H      -2.068746     -5.410850      1.256892
  H      -2.273035     -3.537543      2.611232
60
Coordinates from ORCA-job file E -2653.519170418791
  C      -4.067494     -0.252070      3.737518
  O      -3.467322     -1.468206      3.341977
  C      -2.778867     -1.509047      2.188666
  C      -2.661076     -0.410436      1.328776
  C      -1.919109     -0.557214      0.149368
  O      -1.764587      0.429052     -0.747492
  C      -2.499630      1.626837     -0.600345
  C      -1.309228     -1.781570     -0.164422
  S      -0.336581     -1.982367     -1.662994
  C      -1.597923     -1.480476     -2.873617
  C      -2.890844     -1.992048     -2.766401
  C      -3.843063     -1.659383     -3.726822
  C      -3.479594     -0.823909     -4.783878
  Cl     -4.670018     -0.395993     -5.980610
  C      -2.183783     -0.325242     -4.900655
  C      -1.234515     -0.662295     -3.935856
  C       0.978796     -0.963408     -1.778188
  C       1.234457      0.306581     -0.982041
  N       2.599061     -0.218031     -0.676579
  S       3.913944      0.711189     -1.067616
  O       5.074104     -0.167523     -0.959448
  O       3.709661      1.432643     -2.323991
  C       3.958094      1.908662      0.233047
  C       3.717397      3.245789     -0.066787
  C       3.824932      4.191470      0.952176
  C       4.176135      3.811547      2.252180
  C       4.343975      4.840588      3.336788
  C       4.403908      2.452082      2.522836
  C       4.304441      1.495251      1.520113
  C       2.397595     -1.449961     -1.502225
  C      -1.438246     -2.874837      0.715663
  O      -0.834596     -4.016378      0.349780
  C      -1.006128     -5.164023      1.155822
  C      -2.177369     -2.740237      1.889508
  H      -4.810197      0.085725      2.998930
  H      -3.309034      0.533093      3.879609
  H      -4.567362     -0.448701      4.691406
  H      -3.131158      0.539760      1.565284
  H      -2.189412      2.176505      0.301488
  H      -2.279052      2.230520     -1.486754
  H      -3.579192      1.418652     -0.553971
  H      -3.165894     -2.642027     -1.932799
  H      -4.860763     -2.044851     -3.660002
  H      -1.921725      0.320511     -5.739357
  H      -0.208683     -0.291567     -3.993585
  H       0.648523      0.455635     -0.060322
  H       1.251627      1.252634     -1.552595
  H       3.457301      3.534645     -1.085730
  H       3.639927      5.244443      0.730003
  H       3.991161      4.457562      4.303650
  H       5.408777      5.096855      3.451404
  H       3.799890      5.763213      3.097512
  H       4.675833      2.145796      3.535169
  H       4.495723      0.440266      1.724548
  H       3.069528     -1.486476     -2.377999
  H       2.539727     -2.370551     -0.913773
  H      -0.578232     -5.012648      2.158561
  H      -0.474596     -5.977593      0.651699
  H      -2.072212     -5.421761      1.248372
  H      -2.307033     -3.556678      2.596501
60
Coordinates from ORCA-job file E -2653.519173095640
  C      -4.051303     -0.236191      3.737500
  O      -3.441774     -1.449918      3.349077
  C      -2.761041     -1.495723      2.191158
  C      -2.659220     -0.404426      1.320003
  C      -1.925686     -0.556106      0.136176
  O      -1.784955      0.423915     -0.768976
  C      -2.521991      1.620308     -0.619785
  C      -1.311174     -1.779675     -0.172878
  S      -0.344273     -1.986664     -1.672810
  C      -1.604592     -1.486117     -2.884562
  C      -2.898901     -1.992861     -2.774766
  C      -3.850032     -1.661150     -3.736637
  C      -3.483470     -0.831480     -4.797362
  Cl     -4.672486     -0.403328     -5.995645
  C      -2.186274     -0.336882     -4.915985
  C      -1.238127     -0.673416     -3.949932
  C       0.969886     -0.964635     -1.786381
  C       1.216638      0.305586     -0.988442
  N       2.583366     -0.212225     -0.682029
  S       3.893643      0.721484     -1.074605
  O       5.052170     -0.161165     -0.982261
  O       3.679901      1.454570     -2.322518
  C       3.948347      1.909637      0.235103
  C       3.730952      3.252596     -0.057803
  C       3.845055      4.189964      0.968286
  C       4.179056      3.796000      2.268840
  C       4.351477      4.815280      3.362168
  C       4.384210      2.431479      2.532307
  C       4.278079      1.482814      1.522349
  C       2.389009     -1.446502     -1.506265
  C      -1.424405     -2.865763      0.718553
  O      -0.819594     -4.008059      0.355628
  C      -0.967613     -5.146930      1.178860
  C      -2.152606     -2.725072      1.898465
  H      -4.808136      0.083789      3.005180
  H      -3.300584      0.560022      3.858517
  H      -4.536028     -0.426555      4.700437
  H      -3.133645      0.544679      1.552577
  H      -2.204780      2.172957      0.277883
  H      -2.310522      2.221247     -1.510262
  H      -3.600726      1.410227     -0.563591
  H      -3.175744     -2.638142     -1.938059
  H      -4.869375     -2.041660     -3.667821
  H      -1.922909      0.306458     -5.756145
  H      -0.211375     -0.304739     -4.006792
  H       0.628383      0.447976     -0.066989
  H       1.229491      1.253755     -1.555678
  H       3.485509      3.551319     -1.077463
  H       3.678047      5.247082      0.751771
  H       3.981761      4.432046      4.322600
  H       5.418923      5.053708      3.489697
  H       3.825065      5.748146      3.122898
  H       4.640402      2.114607      3.545455
  H       4.449508      0.423442      1.721348
  H       3.064759     -1.483655     -2.378928
  H       2.531880     -2.364886     -0.914253
  H      -0.525498     -4.978792      2.172744
  H      -0.436802     -5.962314      0.676738
  H      -2.029546     -5.413708      1.291499
  H      -2.270327     -3.536358      2.613304
60
Coordinates from ORCA-job file E -2653.519116162136
  C      -4.003406     -0.203561      3.747600
  O      -3.384387     -1.416427      3.371929
  C      -2.731509     -1.477567      2.198725
  C      -2.664093     -0.402273      1.304936
  C      -1.951798     -0.565811      0.109940
  O      -1.832862      0.403238     -0.810323
  C      -2.559981      1.605031     -0.653272
  C      -1.328509     -1.787340     -0.190244
  S      -0.362770     -1.996229     -1.689266
  C      -1.615970     -1.500665     -2.909667
  C      -2.912774     -2.001621     -2.805372
  C      -3.857456     -1.668912     -3.773053
  C      -3.481200     -0.845398     -4.835015
  Cl     -4.662169     -0.414695     -6.040103
  C      -2.180360     -0.359756     -4.950311
  C      -1.239047     -0.697019     -3.978079
  C       0.944080     -0.966031     -1.791423
  C       1.169866      0.305706     -0.990138
  N       2.543194     -0.192980     -0.682517
  S       3.846622      0.746734     -1.083823
  O       5.003146     -0.141631     -1.019526
  O       3.615933      1.496850     -2.318559
  C       3.925090      1.919613      0.239989
  C       3.748856      3.271582     -0.038732
  C       3.882858      4.193687      0.998579
  C       4.194318      3.776227      2.297823
  C       4.383369      4.777828      3.404846
  C       4.358362      2.403455      2.546933
  C       4.231644      1.469756      1.525606
  C       2.363637     -1.435555     -1.497599
  C      -1.408268     -2.857889      0.723404
  O      -0.798815     -3.999704      0.366353
  C      -0.912674     -5.126494      1.211932
  C      -2.112911     -2.704143      1.916145
  H      -4.786529      0.084482      3.029721
  H      -3.264515      0.609039      3.825590
  H      -4.457105     -0.376559      4.728902
  H      -3.145515      0.544927      1.530230
  H      -2.224512      2.158199      0.236973
  H      -2.359248      2.201214     -1.549410
  H      -3.639149      1.402426     -0.578623
  H      -3.197179     -2.639605     -1.965598
  H      -4.879780     -2.041724     -3.706590
  H      -1.909883      0.279188     -5.791590
  H      -0.210861     -0.331479     -4.029221
  H       0.577159      0.432558     -0.068568
  H       1.170238      1.257356     -1.550582
  H       3.519444      3.587983     -1.056904
  H       3.746905      5.257426      0.793036
  H       3.988003      4.396523      4.355919
  H       5.455694      4.981554      3.550500
  H       3.889669      5.729127      3.168561
  H       4.594562      2.067701      3.558946
  H       4.370021      0.403596      1.714225
  H       3.047982     -1.477525     -2.363161
  H       2.508651     -2.346218     -0.894242
  H      -0.453949     -4.933863      2.193555
  H      -0.378747     -5.941716      0.713007
  H      -1.967208     -5.409305      1.350929
  H      -2.204163     -3.503313      2.648179
60
Coordinates from ORCA-job file E -2653.519117440700
  C      -3.916351     -0.127333      3.751373
  O      -3.272811     -1.334927      3.400226
  C      -2.656725     -1.420738      2.208793
  C      -2.639114     -0.373176      1.280491
  C      -1.958926     -0.559541      0.070106
  O      -1.873087      0.389301     -0.875377
  C      -2.585409      1.599703     -0.715148
  C      -1.330902     -1.782334     -0.217909
  S      -0.380785     -2.006597     -1.724087
  C      -1.637438     -1.516598     -2.942003
  C      -2.937444     -2.006224     -2.827092
  C      -3.885954     -1.667964     -3.789029
  C      -3.509843     -0.851524     -4.856467
  Cl     -4.695801     -0.412395     -6.053359
  C      -2.204978     -0.379637     -4.983728
  C      -1.260494     -0.721215     -4.016330
  C       0.921777     -0.972266     -1.834293
  C       1.134379      0.300474     -1.030213
  N       2.508422     -0.188885     -0.714080
  S       3.813679      0.752574     -1.105448
  O       4.965070     -0.143888     -1.056945
  O       3.586994      1.524184     -2.327679
  C       3.894865      1.900648      0.241593
  C       3.763610      3.262394     -0.012042
  C       3.889828      4.158141      1.048991
  C       4.146456      3.706021      2.348993
  C       4.318608      4.678180      3.484730
  C       4.267242      2.324417      2.572114
  C       4.148064      1.416642      1.526984
  C       2.339302     -1.436239     -1.523285
  C      -1.360331     -2.824493      0.731091
  O      -0.742268     -3.966205      0.388257
  C      -0.782001     -5.059081      1.284495
  C      -2.025130     -2.644165      1.942972
  H      -4.730115      0.107562      3.048278
  H      -3.203190      0.711162      3.774582
  H      -4.334302     -0.275739      4.752575
  H      -3.129852      0.571962      1.492403
  H      -2.225230      2.159051      0.161266
  H      -2.399163      2.183757     -1.622193
  H      -3.664474      1.408797     -0.613761
  H      -3.221822     -2.635682     -1.980832
  H      -4.911572     -2.029904     -3.713085
  H      -1.934381      0.252984     -5.829754
  H      -0.229890     -0.363342     -4.073851
  H       0.534285      0.419112     -0.111889
  H       1.133205      1.254197     -1.586362
  H       3.570715      3.606145     -1.029051
  H       3.787499      5.229209      0.862830
  H       3.886041      4.282406      4.413593
  H       5.388910      4.858849      3.670257
  H       3.849648      5.643767      3.255797
  H       4.459291      1.960117      3.583711
  H       4.249040      0.343274      1.697924
  H       3.033460     -1.483590     -2.380453
  H       2.479514     -2.342080     -0.911501
  H      -0.279363     -4.812964      2.231831
  H      -0.251939     -5.880121      0.791249
  H      -1.819361     -5.363293      1.490878
  H      -2.079459     -3.422887      2.700363
60
Coordinates from ORCA-job file E -2653.519114172728
  C      -3.787715     -0.022192      3.755930
  O      -3.118555     -1.222908      3.428289
  C      -2.549308     -1.339586      2.216683
  C      -2.580478     -0.321876      1.256402
  C      -1.942640     -0.538125      0.027976
  O      -1.889418      0.389096     -0.942063
  C      -2.573733      1.614747     -0.776386
  C      -1.320176     -1.767043     -0.251354
  S      -0.395630     -2.014236     -1.770761
  C      -1.666062     -1.526135     -2.974252
  C      -2.968202     -2.003370     -2.835350
  C      -3.930547     -1.655715     -3.779780
  C      -3.566450     -0.842742     -4.853950
  Cl     -4.770700     -0.391775     -6.027517
  C      -2.258931     -0.385352     -5.006484
  C      -1.300891     -0.735112     -4.055591
  C       0.910312     -0.986683     -1.905696
  C       1.125513      0.288069     -1.103673
  N       2.489157     -0.212516     -0.765198
  S       3.812896      0.717811     -1.118815
  O       4.954506     -0.189642     -1.048031
  O       3.630298      1.501875     -2.340426
  C       3.860338      1.846717      0.247053
  C       3.765937      3.214996      0.015631
  C       3.848916      4.086780      1.100658
  C       4.024492      3.605954      2.404031
  C       4.143654      4.551848      3.568145
  C       4.111385      2.218335      2.603623
  C       4.034216      1.334112      1.534876
  C       2.321006     -1.459377     -1.573517
  C      -1.297818     -2.777452      0.731595
  O      -0.677062     -3.921882      0.401239
  C      -0.608046     -4.960275      1.359337
  C      -1.911781     -2.562775      1.964592
  H      -4.632533      0.154887      3.072631
  H      -3.105245      0.840859      3.719555
  H      -4.166533     -0.143043      4.776304
  H      -3.071761      0.624978      1.457987
  H      -2.175814      2.179910      0.079695
  H      -2.406238      2.182281     -1.697365
  H      -3.652108      1.446000     -0.636543
  H      -3.243677     -2.627060     -1.981883
  H      -4.958161     -2.007614     -3.684597
  H      -1.996702      0.242201     -5.858892
  H      -0.268312     -0.386384     -4.130572
  H       0.512879      0.415645     -0.194739
  H       1.142957      1.239724     -1.662690
  H       3.629315      3.583871     -1.001887
  H       3.773838      5.162973      0.931369
  H       3.673273      4.132588      4.467918
  H       5.203764      4.732440      3.805444
  H       3.680629      5.521076      3.342164
  H       4.239406      1.828454      3.615947
  H       4.104201      0.255980      1.690936
  H       3.026150     -1.514582     -2.421091
  H       2.444862     -2.365157     -0.958160
  H      -0.039026     -4.641567      2.245400
  H      -0.092297     -5.792893      0.870712
  H      -1.614025     -5.281259      1.669267
  H      -1.927327     -3.317879      2.747374
60
Coordinates from ORCA-job file E -2653.519377036101
  C      -3.826991     -0.063255      3.759653
  O      -3.172338     -1.268072      3.417980
  C      -2.582090     -1.368167      2.215194
  C      -2.578195     -0.329785      1.276675
  C      -1.923677     -0.532070      0.054527
  O      -1.847961      0.409680     -0.900078
  C      -2.533999      1.633757     -0.731951
  C      -1.310770     -1.762805     -0.236179
  S      -0.379801     -2.002726     -1.754683
  C      -1.653470     -1.510632     -2.953961
  C      -2.952527     -1.997453     -2.816671
  C      -3.917640     -1.652231     -3.759206
  C      -3.560092     -0.831377     -4.829576
  Cl     -4.768072     -0.384593     -6.000855
  C      -2.256119     -0.363236     -4.979832
  C      -1.294930     -0.710934     -4.031222
  C       0.932268     -0.983829     -1.894911
  C       1.165796      0.292410     -1.100009
  N       2.522318     -0.225450     -0.757220
  S       3.855628      0.694137     -1.104388
  O       4.996707     -0.210582     -1.002038
  O       3.692639      1.457659     -2.341593
  C       3.883701      1.844212      0.242651
  C       3.747642      3.205264     -0.009099
  C       3.815328      4.095915      1.061570
  C       4.019315      3.640490      2.369541
  C       4.126219      4.607517      3.517037
  C       4.148160      2.259207      2.589554
  C       4.085863      1.356362      1.535480
  C       2.341268     -1.468222     -1.568868
  C      -1.323173     -2.793740      0.724966
  O      -0.711210     -3.939446      0.383624
  C      -0.688045     -5.002224      1.316371
  C      -1.958653     -2.595849      1.949594
  H      -4.650784      0.147961      3.060721
  H      -3.126613      0.786054      3.762993
  H      -4.233004     -0.203186      4.766876
  H      -3.058785      0.620400      1.488797
  H      -2.143925      2.193974      0.131128
  H      -2.358951      2.208066     -1.647389
  H      -3.613319      1.462930     -0.602421
  H      -3.223413     -2.628910     -1.967528
  H      -4.942254     -2.013342     -3.665817
  H      -1.998184      0.269166     -5.829919
  H      -0.264325     -0.357096     -4.107920
  H       0.555356      0.437866     -0.192843
  H       1.196674      1.238553     -1.668305
  H       3.590539      3.555409     -1.030181
  H       3.707821      5.166774      0.876512
  H       3.682997      4.187643      4.430049
  H       5.183792      4.824402      3.734501
  H       3.629850      5.558320      3.283765
  H       4.300954      1.888886      3.605669
  H       4.189988      0.283385      1.707136
  H       3.041182     -1.523995     -2.421023
  H       2.460786     -2.378366     -0.959317
  H      -0.140573     -4.715362      2.226806
  H      -0.171282     -5.831134      0.822534
  H      -1.708345     -5.312799      1.587392
  H      -1.999278     -3.365532      2.717208
60
Coordinates from ORCA-job file E -2653.519411287346
  C      -3.929555     -0.147292      3.749354
  O      -3.290723     -1.354672      3.387712
  C      -2.657891     -1.426258      2.204473
  C      -2.604199     -0.359389      1.299620
  C      -1.913976     -0.536703      0.093402
  O      -1.806443      0.424051     -0.837717
  C      -2.503026      1.641663     -0.668881
  C      -1.303870     -1.764497     -0.209665
  S      -0.359319     -1.985994     -1.723183
  C      -1.633973     -1.491235     -2.921534
  C      -2.926168     -1.999444     -2.793423
  C      -3.891999     -1.666410     -3.739774
  C      -3.542857     -0.834025     -4.803786
  Cl     -4.750979     -0.405423     -5.982062
  C      -2.246820     -0.341366     -4.943302
  C      -1.283777     -0.678617     -3.992262
  C       0.956510     -0.968273     -1.859509
  C       1.207968      0.303271     -1.062576
  N       2.561682     -0.230452     -0.728076
  S       3.897676      0.686074     -1.075491
  O       5.041565     -0.211879     -0.951644
  O       3.739779      1.431329     -2.324555
  C       3.916478      1.860761      0.247887
  C       3.731463      3.210402     -0.033919
  C       3.809108      4.130868      1.010568
  C       4.072487      3.714516      2.320618
  C       4.202486      4.714832      3.436654
  C       4.245858      2.343496      2.571885
  C       4.175577      1.411419      1.543917
  C       2.368158     -1.461845     -1.555139
  C      -1.368065     -2.825735      0.715891
  O      -0.770291     -3.974057      0.358103
  C      -0.825950     -5.072700      1.245717
  C      -2.046165     -2.656469      1.921818
  H      -4.722344      0.111506      3.031034
  H      -3.207424      0.681603      3.809397
  H      -4.374630     -0.313808      4.735823
  H      -3.076869      0.592203      1.524757
  H      -2.129782      2.194928      0.206384
  H      -2.316488      2.226961     -1.575133
  H      -3.583218      1.462736     -0.559289
  H      -3.190337     -2.644393     -1.952530
  H      -4.909694     -2.048695     -3.655949
  H      -1.995544      0.300766     -5.788004
  H      -0.258720     -0.308988     -4.064645
  H       0.604814      0.457694     -0.152488
  H       1.244771      1.248024     -1.633386
  H       3.536783      3.529549     -1.058457
  H       3.667545      5.193247      0.801679
  H       3.800961      4.313205      4.376646
  H       5.263333      4.955774      3.607669
  H       3.680897      5.649890      3.195566
  H       4.448093      2.005849      3.590644
  H       4.321930      0.347166      1.737125
  H       3.057450     -1.505850     -2.416981
  H       2.491476     -2.382061     -0.961975
  H      -0.318062     -4.839736      2.193909
  H      -0.308770     -5.898018      0.746083
  H      -1.868368     -5.360549      1.450161
  H      -2.128552     -3.448950      2.662338
60
Coordinates from ORCA-job file E -2653.519410699713
  C      -3.923126     -0.155795      3.755537
  O      -3.289285     -1.364826      3.390317
  C      -2.657780     -1.435898      2.206153
  C      -2.599175     -0.366322      1.304959
  C      -1.906245     -0.541178      0.099917
  O      -1.795500      0.422948     -0.827634
  C      -2.497859      1.637476     -0.659602
  C      -1.298653     -1.769620     -0.205944
  S      -0.352410     -1.989593     -1.719473
  C      -1.625863     -1.486413     -2.915575
  C      -2.920881     -1.987104     -2.786108
  C      -3.887544     -1.643174     -3.727680
  C      -3.536334     -0.808407     -4.789275
  Cl     -4.746538     -0.363176     -5.959198
  C      -2.237469     -0.323874     -4.930632
  C      -1.273749     -0.671899     -3.984212
  C       0.966483     -0.976315     -1.855313
  C       1.220970      0.297471     -1.062971
  N       2.571893     -0.239715     -0.723965
  S       3.911491      0.672748     -1.069518
  O       5.055450     -0.222613     -0.928462
  O       3.763622      1.405324     -2.327432
  C       3.920920      1.858505      0.244245
  C       3.732119      3.205390     -0.048113
  C       3.800517      4.133547      0.990195
  C       4.059019      3.727724      2.304604
  C       4.178736      4.736288      3.414367
  C       4.236995      2.359323      2.566531
  C       4.175419      1.419591      1.544899
  C       2.376566     -1.472559     -1.548196
  C      -1.372876     -2.835627      0.713446
  O      -0.782151     -3.986214      0.350706
  C      -0.852252     -5.091978      1.229142
  C      -2.052709     -2.668116      1.918856
  H      -4.715252      0.107663      3.038070
  H      -3.197818      0.670072      3.817667
  H      -4.368176     -0.322899      4.741879
  H      -3.069515      0.585847      1.532252
  H      -2.132062      2.189787      0.219322
  H      -2.308321      2.226070     -1.563097
  H      -3.578089      1.454330     -0.556811
  H      -3.187517     -2.632447     -1.946230
  H      -4.908047     -2.017152     -3.640782
  H      -1.984850      0.321771     -5.772280
  H      -0.246816     -0.307382     -4.057909
  H       0.616247      0.458683     -0.155169
  H       1.262423      1.239396     -1.638428
  H       3.540292      3.516565     -1.075666
  H       3.654087      5.193639      0.773221
  H       3.775165      4.338985      4.355388
  H       5.237632      4.983640      3.588364
  H       3.653196      5.666929      3.164581
  H       4.433856      2.029556      3.588946
  H       4.324637      0.357351      1.746657
  H       3.066168     -1.520075     -2.409693
  H       2.496959     -2.391805     -0.952931
  H      -0.351253     -4.869511      2.183344
  H      -0.335752     -5.916491      0.727482
  H      -1.897923     -5.375323      1.422867
  H      -2.141074     -3.463117      2.655882
60
Coordinates from ORCA-job file E -2653.519172981558
  C      -3.988135     -0.243723      3.761642
  O      -3.374063     -1.456623      3.375614
  C      -2.718197     -1.508962      2.203056
  C      -2.613811     -0.415316      1.335796
  C      -1.884208     -0.566210      0.149252
  O      -1.738686      0.421348     -0.748929
  C      -2.475120      1.617747     -0.593510
  C      -1.282940     -1.794034     -0.170893
  S      -0.317790     -1.994497     -1.677759
  C      -1.584124     -1.464809     -2.870258
  C      -2.885729     -1.949996     -2.745289
  C      -3.851070     -1.578171     -3.677531
  C      -3.492103     -0.733061     -4.728683
  Cl     -4.702201     -0.247254     -5.882402
  C      -2.187380     -0.263934     -4.866118
  C      -1.225216     -0.640319     -3.929004
  C       1.008616     -0.991309     -1.803049
  C       1.276269      0.285596     -1.020703
  N       2.624153     -0.260052     -0.683880
  S       3.966509      0.645994     -1.042900
  O       5.119002     -0.229158     -0.853180
  O       3.830276      1.326020     -2.331692
  C       3.957506      1.877408      0.228087
  C       3.730570      3.208199     -0.108281
  C       3.788320      4.173531      0.896174
  C       4.076064      3.820371      2.219886
  C       4.188328      4.869610      3.292237
  C       4.292233      2.467051      2.527036
  C       4.240560      1.490609      1.539544
  C       2.417824     -1.494091     -1.503677
  C      -1.421323     -2.890786      0.704081
  O      -0.855886     -4.046203      0.316864
  C      -1.026638     -5.194378      1.126495
  C      -2.137495     -2.746442      1.892067
  H      -4.760669      0.056733      3.037186
  H      -3.245330      0.562502      3.861084
  H      -4.454303     -0.426316      4.735259
  H      -3.076549      0.537383      1.575621
  H      -2.166955      2.159549      0.313345
  H      -2.253058      2.228763     -1.474477
  H      -3.555386      1.410894     -0.550055
  H      -3.160972     -2.600790     -1.912192
  H      -4.877816     -1.933758     -3.587721
  H      -1.929652      0.395860     -5.695269
  H      -0.194528     -0.284910     -4.001429
  H       0.674970      0.462952     -0.113957
  H       1.323465      1.220808     -1.607699
  H       3.516454      3.478018     -1.143188
  H       3.607765      5.220774      0.645363
  H       3.801985      4.499011      4.251430
  H       5.244746      5.140464      3.445058
  H       3.642495      5.780907      3.015247
  H       4.507549      2.178740      3.558302
  H       4.420633      0.440327      1.775447
  H       3.099244     -1.545913     -2.371718
  H       2.537567     -2.413145     -0.908085
  H      -0.582126     -5.044372      2.121400
  H      -0.510102     -6.012671      0.614694
  H      -2.092694     -5.444130      1.238587
  H      -2.270845     -3.561833      2.599171
60
Coordinates from ORCA-job file E -2653.519356038385
  C      -3.966013     -0.198722      3.754341
  O      -3.341795     -1.409652      3.379254
  C      -2.694647     -1.470305      2.202773
  C      -2.613643     -0.388764      1.317756
  C      -1.901884     -0.551531      0.122018
  O      -1.773631      0.423585     -0.791773
  C      -2.491863      1.629909     -0.629896
  C      -1.295233     -1.778973     -0.189302
  S      -0.339314     -1.989480     -1.698523
  C      -1.608885     -1.479336     -2.895706
  C      -2.905562     -1.977024     -2.770463
  C      -3.870096     -1.627144     -3.711982
  C      -3.515091     -0.789792     -4.770405
  Cl     -4.722474     -0.336546     -5.940128
  C      -2.214917     -0.307775     -4.907457
  C      -1.253441     -0.662033     -3.961087
  C       0.980831     -0.977837     -1.827858
  C       1.238443      0.296261     -1.037477
  N       2.591043     -0.240669     -0.704269
  S       3.927604      0.672438     -1.062653
  O       5.077072     -0.214130     -0.911497
  O       3.773750      1.386243     -2.330696
  C       3.938263      1.874330      0.236377
  C       3.731147      3.215480     -0.070120
  C       3.803397      4.157108      0.955697
  C       4.084619      3.770130      2.271182
  C       4.210136      4.793491      3.366788
  C       4.280507      2.407096      2.547776
  C       4.214916      1.454147      1.538642
  C       2.391863     -1.474177     -1.526897
  C      -1.397619     -2.859056      0.710698
  O      -0.813700     -4.010029      0.339201
  C      -0.928832     -5.135957      1.187211
  C      -2.097549     -2.703998      1.906418
  H      -4.746868      0.084716      3.032138
  H      -3.231413      0.617011      3.837293
  H      -4.423642     -0.374325      4.733366
  H      -3.082406      0.562914      1.550120
  H      -2.154646      2.176482      0.263796
  H      -2.284574      2.229528     -1.522204
  H      -3.572763      1.435711     -0.557739
  H      -3.175840     -2.623998     -1.932914
  H      -4.892232     -1.996836     -3.626259
  H      -1.959788      0.341992     -5.745213
  H      -0.225669     -0.298822     -4.032432
  H       0.637094      0.459616     -0.127920
  H       1.277588      1.237108     -1.615211
  H       3.522532      3.511170     -1.099033
  H       3.641475      5.212703      0.728088
  H       3.817083      4.406803      4.316699
  H       5.269743      5.046888      3.527214
  H       3.677857      5.718392      3.109822
  H       4.493652      2.092802      3.571812
  H       4.378792      0.396098      1.750806
  H       3.076825     -1.521988     -2.392120
  H       2.514954     -2.393075     -0.931674
  H      -0.455327     -4.945622      2.162031
  H      -0.409383     -5.956447      0.681968
  H      -1.984296     -5.407203      1.341316
  H      -2.206148     -3.508906      2.629808
60
Coordinates from ORCA-job file E -2653.519308781743
  C      -3.996191     -0.213921      3.749655
  O      -3.377820     -1.426215      3.370179
  C      -2.721481     -1.482518      2.198651
  C      -2.636354     -0.398499      1.316962
  C      -1.917816     -0.557367      0.124791
  O      -1.786650      0.418835     -0.787053
  C      -2.508758      1.623254     -0.627945
  C      -1.305896     -1.782479     -0.184524
  S      -0.343894     -1.989326     -1.688954
  C      -1.608093     -1.485601     -2.894439
  C      -2.903407     -1.988775     -2.778098
  C      -3.861435     -1.647437     -3.729449
  C      -3.500847     -0.812987     -4.788308
  Cl     -4.699303     -0.370622     -5.971486
  C      -2.201931     -0.325194     -4.916045
  C      -1.247088     -0.670866     -3.959919
  C       0.971373     -0.970387     -1.808358
  C       1.220122      0.301356     -1.012188
  N       2.580378     -0.223784     -0.690187
  S       3.904479      0.699440     -1.066868
  O       5.059179     -0.185025     -0.945832
  O       3.720236      1.422974     -2.325155
  C       3.939327      1.894446      0.237913
  C       3.728907      3.236848     -0.061305
  C       3.824981      4.175999      0.964729
  C       4.133611      3.784978      2.272693
  C       4.285316      4.805814      3.367469
  C       4.332076      2.420810      2.542333
  C       4.242984      1.470318      1.532666
  C       2.385822     -1.458506     -1.512985
  C      -1.409517     -2.863950      0.713578
  O      -0.817106     -4.011184      0.345065
  C      -0.946269     -5.143347      1.181940
  C      -2.118763     -2.714013      1.904269
  H      -4.771724      0.080407      3.026147
  H      -3.256013      0.595866      3.841561
  H      -4.459496     -0.392853      4.725382
  H      -3.109177      0.551400      1.548614
  H      -2.178629      2.168846      0.268996
  H      -2.296884      2.224781     -1.517912
  H      -3.589608      1.426053     -0.563805
  H      -3.177159     -2.634751     -1.940907
  H      -4.882363     -2.022136     -3.651768
  H      -1.942726      0.321894     -5.754621
  H      -0.220128     -0.304041     -4.023890
  H       0.623219      0.451589     -0.097385
  H       1.245768      1.246789     -1.583045
  H       3.500614      3.534144     -1.085535
  H       3.661460      5.232608      0.743033
  H       3.900711      4.422644      4.322213
  H       5.349790      5.047083      3.513470
  H       3.760020      5.736791      3.118446
  H       4.567089      2.104815      3.560992
  H       4.409500      0.411305      1.737983
  H       3.068940     -1.502237     -2.379743
  H       2.516992     -2.376247     -0.917574
  H      -0.488232     -4.962174      2.165979
  H      -0.419709     -5.960447      0.678465
  H      -2.004330     -5.414772      1.316728
  H      -2.228100     -3.520426      2.625883
60
Coordinates from ORCA-job file E -2653.518539447719
  C      -4.099369     -0.226008      3.713892
  O      -3.475944     -1.436675      3.340547
  C      -2.798521     -1.488776      2.181375
  C      -2.734368     -0.415089      1.284963
  C      -2.003075     -0.571871      0.100393
  O      -1.890157      0.389741     -0.828030
  C      -2.636457      1.582286     -0.692551
  C      -1.351671     -1.782329     -0.182047
  S      -0.371981     -1.983025     -1.669863
  C      -1.619765     -1.516084     -2.906995
  C      -2.908678     -2.039627     -2.815670
  C      -3.843659     -1.738868     -3.803403
  C      -3.464832     -0.923809     -4.870982
  Cl     -4.630858     -0.534185     -6.104674
  C      -2.171646     -0.415347     -4.972403
  C      -1.240430     -0.719773     -3.979983
  C       0.916836     -0.928740     -1.756897
  C       1.129332      0.324425     -0.924021
  N       2.520652     -0.150344     -0.655302
  S       3.789235      0.821684     -1.088942
  O       4.955755     -0.055397     -1.117001
  O       3.480130      1.611712     -2.280113
  C       3.930206      1.959694      0.258349
  C       3.710646      3.312872      0.019119
  C       3.908265      4.218795      1.059928
  C       4.327331      3.783148      2.321609
  C       4.588527      4.769058      3.428068
  C       4.531627      2.409014      2.532356
  C       4.342587      1.491336      1.506343
  C       2.347337     -1.380195     -1.493097
  C      -1.420717     -2.847651      0.738143
  O      -0.774995     -3.974311      0.401276
  C      -0.905508     -5.108601      1.231855
  C      -2.149996     -2.704037      1.916638
  H      -4.869900      0.070995      2.986520
  H      -3.358891      0.583169      3.811372
  H      -4.569449     -0.405679      4.686227
  H      -3.239062      0.522846      1.497912
  H      -2.325516      2.145755      0.200219
  H      -2.426831      2.175119     -1.588897
  H      -3.713544      1.363611     -0.637822
  H      -3.192866     -2.674364     -1.973412
  H      -4.858700     -2.133222     -3.750383
  H      -1.898505      0.212433     -5.821132
  H      -0.217111     -0.340357     -4.021924
  H       0.554510      0.408871      0.013500
  H       1.096505      1.292389     -1.454322
  H       3.401545      3.639717     -0.974282
  H       3.742932      5.283875      0.885037
  H       4.248230      4.377059      4.395789
  H       5.668855      4.964716      3.511386
  H       4.087327      5.725726      3.234073
  H       4.856605      2.063067      3.515721
  H       4.516003      0.424666      1.660576
  H       3.020791     -1.394481     -2.367775
  H       2.516484     -2.299180     -0.908836
  H      -0.484315     -4.922605      2.231825
  H      -0.345721     -5.913613      0.744703
  H      -1.961519     -5.402871      1.329975
  H      -2.233701     -3.500666      2.652572
60
Coordinates from ORCA-job file E -2653.519163172952
  C      -3.974610     -0.184495      3.750570
  O      -3.373451     -1.404430      3.368519
  C      -2.716639     -1.466987      2.197787
  C      -2.626293     -0.385678      1.313244
  C      -1.912455     -0.552472      0.119297
  O      -1.771324      0.421302     -0.793574
  C      -2.471589      1.638030     -0.630559
  C      -1.311503     -1.783188     -0.189410
  S      -0.350198     -1.997350     -1.691455
  C      -1.614726     -1.516848     -2.906628
  C      -2.907079     -2.027397     -2.791199
  C      -3.861548     -1.704339     -3.752621
  C      -3.499685     -0.880921     -4.819644
  Cl     -4.692939     -0.461808     -6.016613
  C      -2.202994     -0.386972     -4.946660
  C      -1.252109     -0.713574     -3.980120
  C       0.950740     -0.961099     -1.809088
  C       1.178585      0.309413     -1.005626
  N       2.552165     -0.189437     -0.697607
  S       3.854676      0.755701     -1.092333
  O       5.017269     -0.124467     -1.025798
  O       3.626296      1.507894     -2.326144
  C       3.918630      1.923561      0.235998
  C       3.710360      3.272481     -0.033675
  C       3.828349      4.191016      1.008531
  C       4.155686      3.773110      2.303443
  C       4.326230      4.771604      3.415990
  C       4.352394      2.402957      2.543217
  C       4.242002      1.472832      1.516944
  C       2.372498     -1.428284     -1.518381
  C      -1.412957     -2.858873      0.715808
  O      -0.821737     -4.007888      0.352220
  C      -0.961289     -5.139294      1.187482
  C      -2.118478     -2.701775      1.907508
  H      -4.746701      0.122224      3.028664
  H      -3.223180      0.614855      3.842851
  H      -4.439477     -0.358708      4.726451
  H      -3.092526      0.567660      1.543860
  H      -2.132038      2.175203      0.267900
  H      -2.248983      2.238131     -1.518837
  H      -3.555594      1.459142     -0.567120
  H      -3.180784     -2.664658     -1.947365
  H      -4.880221     -2.085697     -3.677533
  H      -1.942452      0.248501     -5.793642
  H      -0.226626     -0.342547     -4.041891
  H       0.586254      0.436202     -0.083937
  H       1.179725      1.261296     -1.565537
  H       3.465630      3.589292     -1.048100
  H       3.667128      5.252604      0.810136
  H       3.941463      4.375468      4.365349
  H       5.394269      4.997024      3.560954
  H       3.811533      5.713510      3.187186
  H       4.603790      2.066811      3.551398
  H       4.405522      0.408999      1.698658
  H       3.054925     -1.464320     -2.385767
  H       2.519632     -2.342144     -0.920561
  H      -0.503449     -4.964218      2.172844
  H      -0.441176     -5.960090      0.683291
  H      -2.021858     -5.401868      1.319924
  H      -2.227084     -3.504993      2.632899
60
Coordinates from ORCA-job file E -2653.518500534200
  C      -4.122352     -0.241785      3.695091
  O      -3.402231     -1.412922      3.368179
  C      -2.737179     -1.463083      2.201129
  C      -2.719925     -0.405807      1.283654
  C      -1.988609     -0.557452      0.098150
  O      -1.925814      0.392418     -0.848660
  C      -2.736016      1.544772     -0.734814
  C      -1.297693     -1.750163     -0.170343
  S      -0.339971     -1.953400     -1.681198
  C      -1.610850     -1.423848     -2.869524
  C      -2.907226     -1.924710     -2.752819
  C      -3.871749     -1.561390     -3.689127
  C      -3.518201     -0.705733     -4.733132
  Cl     -4.725055     -0.240755     -5.898399
  C      -2.218787     -0.219080     -4.861410
  C      -1.256967     -0.587860     -3.920831
  C       0.991405     -0.957068     -1.815389
  C       1.284418      0.302286     -1.013605
  N       2.637290     -0.256630     -0.719223
  S       3.978748      0.643411     -1.095688
  O       5.124118     -0.249963     -0.953440
  O       3.819836      1.353205     -2.365980
  C       4.006925      1.839970      0.208809
  C       3.810561      3.185509     -0.085061
  C       3.881240      4.115917      0.951589
  C       4.147347      3.713608      2.265871
  C       4.265934      4.723434      3.374764
  C       4.333316      2.346738      2.529080
  C       4.270518      1.405192      1.509191
  C       2.400820     -1.478614     -1.548071
  C      -1.337138     -2.806708      0.761748
  O      -0.676206     -3.927614      0.430217
  C      -0.731344     -5.033726      1.309857
  C      -2.056268     -2.662163      1.947341
  H      -4.912872     -0.044151      2.955156
  H      -3.453873      0.630564      3.758564
  H      -4.578252     -0.419673      4.674574
  H      -3.256014      0.517832      1.481104
  H      -2.451117      2.147401      0.140878
  H      -2.566798      2.127046     -1.646448
  H      -3.799434      1.270327     -0.663003
  H      -3.176839     -2.587144     -1.927281
  H      -4.892768     -1.935832     -3.610753
  H      -1.964030      0.444532     -5.688373
  H      -0.229878     -0.221646     -3.986429
  H       0.706058      0.462320     -0.089100
  H       1.323579      1.249759     -1.580371
  H       3.607821      3.493919     -1.111352
  H       3.726747      5.174751      0.733986
  H       3.855863      4.329285      4.314471
  H       5.325161      4.965733      3.553849
  H       3.745031      5.655681      3.121068
  H       4.535767      2.019497      3.551309
  H       4.423189      0.343784      1.712779
  H       3.065748     -1.527721     -2.428690
  H       2.522007     -2.405571     -0.965238
  H      -0.279918     -4.786864      2.282402
  H      -0.157992     -5.835048      0.833097
  H      -1.770046     -5.363741      1.463775
  H      -2.120037     -3.451029      2.693565
60
Coordinates from ORCA-job file E -2653.519307697427
  C      -4.020418     -0.200955      3.737901
  O      -3.374802     -1.403883      3.374767
  C      -2.720540     -1.462181      2.202519
  C      -2.661875     -0.389101      1.305321
  C      -1.948192     -0.550823      0.110666
  O      -1.833704      0.417542     -0.811250
  C      -2.559166      1.620170     -0.654485
  C      -1.317551     -1.769551     -0.187403
  S      -0.360792     -1.981196     -1.693632
  C      -1.623756     -1.487762     -2.905536
  C      -2.912345     -2.010960     -2.805705
  C      -3.864597     -1.679362     -3.766343
  C      -3.504816     -0.833883     -4.816601
  Cl     -4.695109     -0.406531     -6.013469
  C      -2.211844     -0.326558     -4.928113
  C      -1.262879     -0.662475     -3.962788
  C       0.951704     -0.959058     -1.813007
  C       1.199054      0.306328     -1.006781
  N       2.564943     -0.213985     -0.700227
  S       3.881751      0.713964     -1.087761
  O       5.034259     -0.177402     -0.999215
  O       3.677021      1.456382     -2.331666
  C       3.938751      1.890577      0.233321
  C       3.743357      3.239373     -0.046089
  C       3.853519      4.162716      0.992920
  C       4.158945      3.749629      2.294759
  C       4.321746      4.752671      3.404324
  C       4.342185      2.379369      2.544243
  C       4.240078      1.444641      1.521367
  C       2.367744     -1.446423     -1.525677
  C      -1.385348     -2.835964      0.731717
  O      -0.762337     -3.972021      0.380608
  C      -0.857578     -5.092583      1.236459
  C      -2.089459     -2.683405      1.924740
  H      -4.805836      0.063276      3.013551
  H      -3.299691      0.627981      3.813139
  H      -4.475399     -0.375579      4.718379
  H      -3.150765      0.554965      1.527392
  H      -2.226061      2.172295      0.237391
  H      -2.354625      2.217259     -1.549163
  H      -3.638697      1.418974     -0.582722
  H      -3.184467     -2.666613     -1.975597
  H      -4.879827     -2.072009     -3.703930
  H      -1.952411      0.326093     -5.762274
  H      -0.240306     -0.281922     -4.013147
  H       0.608994      0.440958     -0.084966
  H       1.214958      1.258870     -1.565461
  H       3.515547      3.553358     -1.065393
  H       3.704001      5.224443      0.786266
  H       3.925267      4.362592      4.351380
  H       5.388984      4.974675      3.560133
  H       3.813380      5.695542      3.165691
  H       4.577535      2.046299      3.557337
  H       4.393735      0.380838      1.711505
  H       3.048181     -1.487112     -2.394454
  H       2.503349     -2.365201     -0.932749
  H      -0.395371     -4.885745      2.213637
  H      -0.316775     -5.905112      0.740748
  H      -1.907953     -5.385810      1.384943
  H      -2.173699     -3.480612      2.659981
60
Coordinates from ORCA-job file E -2653.519210227140
  C      -3.961160     -0.169379      3.740191
  O      -3.334574     -1.381071      3.372740
  C      -2.688571     -1.448450      2.196427
  C      -2.624674     -0.377735      1.296535
  C      -1.920657     -0.549703      0.097515
  O      -1.801239      0.413351     -0.829470
  C      -2.510307      1.625652     -0.673320
  C      -1.306878     -1.775800     -0.202608
  S      -0.356645     -1.993483     -1.710413
  C      -1.625923     -1.500979     -2.915292
  C      -2.928323     -1.977259     -2.771795
  C      -3.888070     -1.650349     -3.726573
  C      -3.521674     -0.856816     -4.814357
  Cl     -4.720086     -0.437204     -6.005834
  C      -2.215873     -0.395268     -4.967885
  C      -1.259581     -0.725485     -4.007867
  C       0.948808     -0.963045     -1.831350
  C       1.179720      0.306158     -1.026454
  N       2.546543     -0.203357     -0.706308
  S       3.858663      0.734232     -1.084379
  O       5.014062     -0.154354     -1.006343
  O       3.649656      1.490047     -2.319260
  C       3.911589      1.898361      0.247532
  C       3.705923      3.248118     -0.019440
  C       3.815149      4.163247      1.026811
  C       4.131223      3.741155      2.323101
  C       4.294008      4.735909      3.440053
  C       4.325125      2.370067      2.559903
  C       4.223270      1.443373      1.529814
  C       2.366478     -1.438111     -1.532658
  C      -1.378037     -2.839471      0.719421
  O      -0.769880     -3.982755      0.365845
  C      -0.871565     -5.100828      1.223881
  C      -2.072451     -2.677164      1.916779
  H      -4.746826      0.106033      3.020344
  H      -3.228620      0.649451      3.811660
  H      -4.413151     -0.338235      4.723080
  H      -3.102321      0.571742      1.519750
  H      -2.165665      2.176807      0.214796
  H      -2.302673      2.216780     -1.571170
  H      -3.591864      1.438142     -0.595501
  H      -3.204441     -2.593201     -1.913017
  H      -4.913763     -2.007648     -3.631446
  H      -1.952041      0.216506     -5.831108
  H      -0.226120     -0.382111     -4.091462
  H       0.580059      0.437590     -0.110038
  H       1.193291      1.257870     -1.586532
  H       3.471014      3.568946     -1.035019
  H       3.657703      5.225723      0.830062
  H       3.906222      4.334929      4.386122
  H       5.360592      4.964159      3.591235
  H       3.777692      5.677250      3.212698
  H       4.569414      2.030292      3.568624
  H       4.386035      0.379098      1.709621
  H       3.054647     -1.474229     -2.395573
  H       2.504872     -2.355022     -0.937494
  H      -0.396818     -4.899644      2.196284
  H      -0.347083     -5.921172      0.723500
  H      -1.924345     -5.379474      1.383091
  H      -2.159858     -3.472188      2.654050
60
Coordinates from ORCA-job file E -2653.519296789178
  C      -3.975752     -0.171675      3.741282
  O      -3.340241     -1.379986      3.377801
  C      -2.695587     -1.447138      2.200697
  C      -2.639604     -0.378992      1.297329
  C      -1.935180     -0.549897      0.098431
  O      -1.823102      0.412028     -0.830637
  C      -2.541054      1.619307     -0.676194
  C      -1.314370     -1.773397     -0.199105
  S      -0.362157     -1.990589     -1.706361
  C      -1.628649     -1.499297     -2.914905
  C      -2.919562     -2.014476     -2.804401
  C      -3.874844     -1.684551     -3.762634
  C      -3.515735     -0.848721     -4.820767
  Cl     -4.709910     -0.422898     -6.014301
  C      -2.220766     -0.348786     -4.942263
  C      -1.268681     -0.682964     -3.979457
  C       0.945813     -0.963037     -1.827574
  C       1.180877      0.306216     -1.023626
  N       2.546401     -0.206959     -0.703757
  S       3.862182      0.724793     -1.084242
  O       5.014384     -0.167632     -1.002900
  O       3.656860      1.477010     -2.322011
  C       3.919432      1.892623      0.244421
  C       3.722406      3.242935     -0.026364
  C       3.834856      4.160109      1.017811
  C       4.145526      3.739571      2.315960
  C       4.311591      4.736171      3.430796
  C       4.330871      2.367995      2.556608
  C       4.225872      1.439251      1.528630
  C       2.361719     -1.442617     -1.527492
  C      -1.378516     -2.834742      0.726152
  O      -0.763030     -3.975215      0.375765
  C      -0.855391     -5.090933      1.238229
  C      -2.072242     -2.672799      1.924035
  H      -4.764774      0.094198      3.021469
  H      -3.249720      0.653294      3.808071
  H      -4.424818     -0.339918      4.725613
  H      -3.122790      0.568267      1.518114
  H      -2.200592      2.174139      0.211240
  H      -2.337706      2.210840     -1.574759
  H      -3.621257      1.424079     -0.598084
  H      -3.190803     -2.662619     -1.968162
  H      -4.891916     -2.071087     -3.692359
  H      -1.962321      0.296924     -5.782096
  H      -0.244418     -0.308098     -4.037179
  H       0.582178      0.440474     -0.107122
  H       1.196969      1.257233     -1.584811
  H       3.491551      3.562806     -1.043150
  H       3.683853      5.222944      0.817989
  H       3.918898      4.340105      4.376941
  H       5.379174      4.958207      3.584224
  H       3.801685      5.680102      3.199664
  H       4.570441      2.029180      3.566801
  H       4.381790      0.374537      1.711762
  H       3.049679     -1.482866     -2.390378
  H       2.496599     -2.359021     -0.930750
  H      -0.379884     -4.882755      2.208723
  H      -0.326405     -5.909586      0.739841
  H      -1.905868     -5.376111      1.401044
  H      -2.153966     -3.465978      2.663898
60
Coordinates from ORCA-job file E -2653.519319915793
  C      -3.978697     -0.175936      3.743235
  O      -3.331108     -1.378894      3.383034
  C      -2.691701     -1.444889      2.203012
  C      -2.647978     -0.379267      1.296150
  C      -1.947166     -0.548197      0.094878
  O      -1.844120      0.414163     -0.834810
  C      -2.568096      1.617401     -0.677012
  C      -1.318902     -1.768370     -0.202449
  S      -0.366524     -1.984105     -1.710722
  C      -1.631384     -1.493316     -2.920904
  C      -2.924672     -2.001202     -2.805442
  C      -3.880403     -1.669949     -3.762714
  C      -3.519244     -0.840785     -4.825398
  Cl     -4.714137     -0.413382     -6.017621
  C      -2.221704     -0.348872     -4.952245
  C      -1.269294     -0.683960     -3.990071
  C       0.944889     -0.960542     -1.833268
  C       1.184655      0.308198     -1.029309
  N       2.546319     -0.211921     -0.704875
  S       3.869723      0.711769     -1.079268
  O       5.016747     -0.186226     -0.987057
  O       3.677659      1.460766     -2.321176
  C       3.924055      1.882962      0.246720
  C       3.737314      3.233896     -0.028225
  C       3.846548      4.152498      1.015090
  C       4.143648      3.732887      2.316765
  C       4.305963      4.730682      3.431073
  C       4.318899      2.360741      2.561517
  C       4.217067      1.430548      1.534488
  C       2.357731     -1.446880     -1.528449
  C      -1.371238     -2.827224      0.726417
  O      -0.748035     -3.964007      0.377005
  C      -0.822038     -5.075635      1.246851
  C      -2.060247     -2.666489      1.927202
  H      -4.774169      0.076385      3.025577
  H      -3.262227      0.657945      3.801931
  H      -4.421218     -0.343996      4.730560
  H      -3.136378      0.565417      1.516555
  H      -2.227501      2.173622      0.209495
  H      -2.371369      2.210643     -1.575940
  H      -3.646949      1.416392     -0.594786
  H      -3.197902     -2.643266     -1.965130
  H      -4.899570     -2.050019     -3.687867
  H      -1.961528      0.291640     -5.795529
  H      -0.243182     -0.314774     -4.051853
  H       0.584113      0.446966     -0.114811
  H       1.207604      1.258364     -1.591655
  H       3.516723      3.553592     -1.047346
  H       3.703254      5.215757      0.811877
  H       3.904737      4.338035      4.375081
  H       5.373344      4.948389      3.591992
  H       3.801892      5.676452      3.194640
  H       4.547405      2.022177      3.574372
  H       4.364888      0.365358      1.721392
  H       3.047817     -1.490985     -2.389429
  H       2.485923     -2.363915     -0.931222
  H      -0.340243     -4.856526      2.211781
  H      -0.289111     -5.891900      0.748782
  H      -1.868085     -5.370271      1.420773
  H      -2.132798     -3.457944      2.669837
60
Coordinates from ORCA-job file E -2653.519385096757
  C      -3.948051     -0.171191      3.752536
  O      -3.283853     -1.366672      3.396880
  C      -2.661624     -1.435269      2.207882
  C      -2.639886     -0.375497      1.293564
  C      -1.953010     -0.545851      0.084467
  O      -1.866775      0.414445     -0.849248
  C      -2.594741      1.614338     -0.684919
  C      -1.320650     -1.763656     -0.215321
  S      -0.374953     -1.979664     -1.728988
  C      -1.640354     -1.479369     -2.933668
  C      -2.936157     -1.979541     -2.812564
  C      -3.895346     -1.638780     -3.762878
  C      -3.535509     -0.808029     -4.824726
  Cl     -4.735172     -0.369084     -6.007822
  C      -2.235464     -0.324339     -4.957734
  C      -1.279450     -0.668775     -4.002363
  C       0.946268     -0.967850     -1.856801
  C       1.192663      0.305022     -1.059918
  N       2.539743     -0.232759     -0.706091
  S       3.886223      0.668235     -1.054129
  O       5.018389     -0.243188     -0.920634
  O       3.740002      1.405570     -2.309187
  C       3.920605      1.852792      0.260500
  C       3.751924      3.202537     -0.031159
  C       3.846428      4.130236      1.005537
  C       4.111370      3.721015      2.317491
  C       4.259604      4.728187      3.425192
  C       4.268608      2.349834      2.578920
  C       4.180831      1.410559      1.558882
  C       2.348776     -1.469360     -1.526174
  C      -1.352281     -2.817261      0.720517
  O      -0.725623     -3.951994      0.369141
  C      -0.762074     -5.051896      1.256765
  C      -2.024353     -2.653466      1.930511
  H      -4.757843      0.056789      3.042670
  H      -3.247021      0.676855      3.790944
  H      -4.374051     -0.335500      4.747746
  H      -3.131363      0.567284      1.515139
  H      -2.246540      2.174025      0.196445
  H      -2.411790      2.207055     -1.587078
  H      -3.671565      1.408515     -0.588992
  H      -3.209091     -2.621711     -1.972259
  H      -4.916504     -2.012428     -3.682799
  H      -1.975975      0.317443     -5.800269
  H      -0.251750     -0.305051     -4.069062
  H       0.578230      0.463479     -0.158079
  H       1.240659      1.248357     -1.632049
  H       3.557172      3.515493     -1.057671
  H       3.717215      5.192632      0.788843
  H       3.841888      4.345702      4.366231
  H       5.325064      4.943432      3.601582
  H       3.763225      5.673782      3.172174
  H       4.471490      2.018386      3.599592
  H       4.315536      0.346204      1.759727
  H       3.051351     -1.526749     -2.376238
  H       2.454894     -2.385365     -0.923134
  H      -0.256472     -4.811655      2.204270
  H      -0.232745     -5.868795      0.756003
  H      -1.799005     -5.356518      1.464585
  H      -2.081116     -3.440937      2.678719
60
Coordinates from ORCA-job file E -2653.519335762530
  C      -3.820602     -0.152985      3.791815
  O      -3.115769     -1.327524      3.441386
  C      -2.551904     -1.406835      2.224181
  C      -2.588017     -0.361713      1.294282
  C      -1.946704     -0.537840      0.061134
  O      -1.905414      0.419408     -0.879883
  C      -2.638366      1.612626     -0.691428
  C      -1.315412     -1.753649     -0.253358
  S      -0.390982     -1.971946     -1.784886
  C      -1.657997     -1.432214     -2.966672
  C      -2.964735     -1.896319     -2.819941
  C      -3.936898     -1.514354     -3.740379
  C      -3.580677     -0.679597     -4.800234
  Cl     -4.798954     -0.188067     -5.942458
  C      -2.270181     -0.233701     -4.960732
  C      -1.300641     -0.618755     -4.034598
  C       0.964312     -1.003801     -1.933602
  C       1.238288      0.281057     -1.160141
  N       2.530206     -0.314116     -0.710972
  S       3.946335      0.512071     -0.962505
  O       5.022885     -0.431351     -0.678694
  O       3.960607      1.194350     -2.256661
  C       3.903163      1.750149      0.301263
  C       3.787880      3.090793     -0.050967
  C       3.817562      4.054730      0.956160
  C       3.967223      3.691365      2.299785
  C       4.050231      4.736261      3.378595
  C       4.072624      2.328387      2.621546
  C       4.046428      1.353036      1.632381
  C       2.328995     -1.555012     -1.520299
  C      -1.299075     -2.797329      0.694424
  O      -0.680200     -3.933532      0.328476
  C      -0.606085     -4.996571      1.260281
  C      -1.914039     -2.621300      1.933131
  H      -4.669717      0.008952      3.109773
  H      -3.163936      0.730340      3.772457
  H      -4.196369     -0.305387      4.808948
  H      -3.078852      0.579155      1.524355
  H      -2.262803      2.179582      0.173842
  H      -2.496618      2.204373     -1.601532
  H      -3.708756      1.398067     -0.551694
  H      -3.237765     -2.536644     -1.978320
  H      -4.966771     -1.857000     -3.636067
  H      -2.012548      0.412534     -5.800438
  H      -0.266040     -0.280529     -4.123280
  H       0.583131      0.508566     -0.303394
  H       1.371528      1.197004     -1.762579
  H       3.683684      3.373098     -1.099526
  H       3.727790      5.110135      0.690900
  H       3.576576      4.386747      4.305987
  H       5.103443      4.957919      3.612010
  H       3.572011      5.672813      3.063576
  H       4.182259      2.028864      3.666236
  H       4.141691      0.295384      1.884114
  H       3.068893     -1.657100     -2.334024
  H       2.361211     -2.465999     -0.901630
  H      -0.025450     -4.698406      2.146000
  H      -0.098473     -5.819662      0.747689
  H      -1.610083     -5.318888      1.575045
  H      -1.932124     -3.399639      2.692623
60
Coordinates from ORCA-job file E -2653.519507297654
  C      -3.856352     -0.151095      3.783205
  O      -3.189793     -1.344527      3.423765
  C      -2.595275     -1.419504      2.220956
  C      -2.589716     -0.363079      1.302761
  C      -1.928053     -0.539312      0.080339
  O      -1.856119      0.420095     -0.856304
  C      -2.572271      1.624908     -0.676767
  C      -1.310450     -1.761920     -0.231201
  S      -0.379143     -1.983949     -1.754904
  C      -1.644805     -1.459310     -2.945509
  C      -2.946764     -1.940622     -2.813881
  C      -3.910979     -1.577161     -3.750291
  C      -3.550836     -0.742783     -4.809253
  Cl     -4.758099     -0.274752     -5.973007
  C      -2.245109     -0.277830     -4.952870
  C      -1.283741     -0.644916     -4.011374
  C       0.957101     -0.991705     -1.895311
  C       1.213180      0.286858     -1.108842
  N       2.536910     -0.275339     -0.712069
  S       3.913338      0.594020     -1.021871
  O       5.023500     -0.331510     -0.819364
  O       3.834541      1.303176     -2.299213
  C       3.908657      1.805258      0.269217
  C       3.764462      3.151030     -0.052278
  C       3.815086      4.095451      0.972452
  C       4.012846      3.707433      2.302775
  C       4.111085      4.732002      3.400072
  C       4.148547      2.340060      2.593697
  C       4.103156      1.384116      1.586322
  C       2.342823     -1.515701     -1.524737
  C      -1.329527     -2.813959      0.707026
  O      -0.719389     -3.954736      0.343787
  C      -0.716611     -5.042320      1.248403
  C      -1.971675     -2.641968      1.932124
  H      -4.679185      0.064296      3.084215
  H      -3.162610      0.703392      3.803867
  H      -4.265156     -0.311793      4.786177
  H      -3.071913      0.582557      1.531595
  H      -2.200311      2.183721      0.195348
  H      -2.406806      2.215559     -1.583577
  H      -3.647943      1.426904     -0.554708
  H      -3.221022     -2.583680     -1.974740
  H      -4.937008     -1.934943     -3.660539
  H      -1.985007      0.367532     -5.792479
  H      -0.251921     -0.294967     -4.087071
  H       0.578869      0.474997     -0.226791
  H       1.298463      1.218883     -1.695063
  H       3.619408      3.449715     -1.091199
  H       3.701975      5.154591      0.732049
  H       3.655553      4.362415      4.328768
  H       5.167438      4.954085      3.618108
  H       3.622909      5.671993      3.111931
  H       4.296085      2.023211      3.628480
  H       4.217494      0.322554      1.812725
  H       3.064042     -1.595313     -2.357395
  H       2.414814     -2.428290     -0.911557
  H      -0.175430     -4.783953      2.171067
  H      -0.202893     -5.863997      0.739439
  H      -1.742736     -5.348581      1.501737
  H      -2.017631     -3.427298      2.683254
60
Coordinates from ORCA-job file E -2653.519518448193
  C      -3.867163     -0.178730      3.791891
  O      -3.211596     -1.375555      3.423939
  C      -2.608482     -1.443832      2.224930
  C      -2.583477     -0.377203      1.318867
  C      -1.915296     -0.547642      0.099138
  O      -1.827126      0.420149     -0.827418
  C      -2.530371      1.631310     -0.639553
  C      -1.306760     -1.772605     -0.220054
  S      -0.372817     -1.989505     -1.742889
  C      -1.632894     -1.446262     -2.930996
  C      -2.938273     -1.920334     -2.806734
  C      -3.897047     -1.545391     -3.744220
  C      -3.528370     -0.706359     -4.796543
  Cl     -4.728111     -0.226863     -5.963305
  C      -2.219805     -0.247101     -4.931985
  C      -1.263836     -0.626060     -3.989702
  C       0.968311     -1.002778     -1.876683
  C       1.227930      0.274266     -1.089680
  N       2.553718     -0.288120     -0.700724
  S       3.925019      0.582941     -1.027297
  O       5.041189     -0.333620     -0.816592
  O       3.837076      1.273272     -2.314555
  C       3.914564      1.808816      0.250274
  C       3.765681      3.150636     -0.085386
  C       3.804551      4.105344      0.930459
  C       3.993770      3.731322      2.266150
  C       4.077337      4.766662      3.354594
  C       4.134703      2.367634      2.571338
  C       4.101433      1.401752      1.573009
  C       2.353322     -1.530652     -1.508583
  C      -1.344590     -2.834751      0.706335
  O      -0.744233     -3.978240      0.335915
  C      -0.762897     -5.075456      1.228421
  C      -1.995672     -2.669719      1.927667
  H      -4.682596      0.054383      3.090032
  H      -3.163496      0.667174      3.827055
  H      -4.284626     -0.345837      4.790233
  H      -3.057068      0.571141      1.554649
  H      -2.152957      2.179013      0.237293
  H      -2.357244      2.227044     -1.541601
  H      -3.608305      1.444367     -0.520328
  H      -3.218922     -2.568074     -1.973317
  H      -4.925286     -1.898296     -3.660787
  H      -1.953114      0.402459     -5.766287
  H      -0.229676     -0.281879     -4.059854
  H       0.597972      0.461623     -0.204414
  H       1.310543      1.207041     -1.675274
  H       3.626176      3.438361     -1.128159
  H       3.688212      5.161539      0.678910
  H       3.613573      4.404249      4.282079
  H       5.130678      4.994517      3.581131
  H       3.588732      5.702075      3.052593
  H       4.275950      2.061661      3.610261
  H       4.218388      0.342943      1.810835
  H       3.071830     -1.615086     -2.343085
  H       2.424656     -2.441288     -0.892416
  H      -0.230598     -4.832554      2.160400
  H      -0.250695     -5.896478      0.716853
  H      -1.795141     -5.374552      1.465193
  H      -2.056776     -3.462869      2.669477
60
Coordinates from ORCA-job file E -2653.519437465965
  C      -3.873772     -0.197856      3.817596
  O      -3.261534     -1.409861      3.426591
  C      -2.643187     -1.471790      2.234547
  C      -2.570850     -0.387291      1.352374
  C      -1.884777     -0.550572      0.141313
  O      -1.759427      0.430203     -0.767372
  C      -2.436888      1.654824     -0.570963
  C      -1.297747     -1.782858     -0.189034
  S      -0.352412     -1.993901     -1.705997
  C      -1.604557     -1.440633     -2.899566
  C      -2.911977     -1.913116     -2.790185
  C      -3.858711     -1.540529     -3.740720
  C      -3.475845     -0.705987     -4.791477
  Cl     -4.659240     -0.236810     -5.978725
  C      -2.166602     -0.244248     -4.909624
  C      -1.222875     -0.620988     -3.954231
  C       0.988276     -1.006507     -1.829236
  C       1.257477      0.256683     -1.025677
  N       2.603032     -0.295988     -0.693580
  S       3.940827      0.606938     -1.070483
  O       5.092747     -0.269889     -0.882991
  O       3.795976      1.277527     -2.363549
  C       3.920642      1.837842      0.202491
  C       3.733557      3.174979     -0.132407
  C       3.756024      4.130700      0.883164
  C       3.964465      3.762001      2.217651
  C       4.027606      4.798299      3.306480
  C       4.144539      2.402738      2.522062
  C       4.128444      1.436392      1.523935
  C       2.386803     -1.529800     -1.510734
  C      -1.388227     -2.864781      0.710759
  O      -0.815004     -4.017178      0.326493
  C      -0.906466     -5.140568      1.180865
  C      -2.062536     -2.709033      1.920997
  H      -4.671029      0.087336      3.114353
  H      -3.136257      0.616757      3.883721
  H      -4.308555     -0.373276      4.807058
  H      -3.023673      0.568217      1.600089
  H      -2.053420      2.181458      0.316159
  H      -2.241233      2.257369     -1.463909
  H      -3.519943      1.491900     -0.464251
  H      -3.202641     -2.560521     -1.959935
  H      -4.888175     -1.892638     -3.669977
  H      -1.889996      0.404466     -5.741362
  H      -0.187278     -0.278389     -4.012257
  H       0.655560      0.417500     -0.115985
  H       1.308334      1.203158     -1.593310
  H       3.576641      3.457365     -1.174255
  H       3.610296      5.183573      0.632953
  H       3.572832      4.425012      4.234189
  H       5.076460      5.047827      3.531152
  H       3.518330      5.723181      3.005963
  H       4.301978      2.101402      3.559979
  H       4.274046      0.380764      1.760506
  H       3.081189     -1.599101     -2.366867
  H       2.484720     -2.445920     -0.906424
  H      -0.413884     -4.943381      2.144699
  H      -0.392552     -5.959816      0.668026
  H      -1.957040     -5.417360      1.356917
  H      -2.162494     -3.515822      2.643499
60
Coordinates from ORCA-job file E -2653.519113772166
  C      -3.994545     -0.262405      3.799478
  O      -3.445993     -1.492708      3.375658
  C      -2.762617     -1.537601      2.218683
  C      -2.595079     -0.425095      1.385214
  C      -1.855101     -0.575215      0.204537
  O      -1.653097      0.423373     -0.669359
  C      -2.295993      1.666541     -0.471779
  C      -1.290979     -1.815428     -0.133036
  S      -0.316815     -2.010917     -1.630517
  C      -1.560839     -1.461680     -2.840537
  C      -2.866984     -1.943074     -2.754868
  C      -3.796160     -1.587163     -3.729310
  C      -3.396024     -0.760214     -4.779562
  Cl     -4.554342     -0.316719     -6.001262
  C      -2.089420     -0.285765     -4.871700
  C      -1.163722     -0.646463     -3.892786
  C       1.009505     -1.004307     -1.721767
  C       1.274526      0.240748     -0.893270
  N       2.661953     -0.265137     -0.664076
  S       3.918371      0.709137     -1.135846
  O       5.131423     -0.098111     -1.044933
  O       3.637381      1.376182     -2.408241
  C       3.924918      1.929050      0.146631
  C       3.642133      3.255009     -0.164189
  C       3.700594      4.208642      0.851687
  C       4.038789      3.847410      2.161143
  C       4.144226      4.883143      3.247012
  C       4.311661      2.498311      2.442320
  C       4.261249      1.534747      1.443021
  C       2.436170     -1.491011     -1.492709
  C      -1.476391     -2.924743      0.717300
  O      -0.930554     -4.084979      0.322056
  C      -1.170455     -5.245798      1.091032
  C      -2.217932     -2.787179      1.889893
  H      -4.733654      0.118050      3.078655
  H      -3.204521      0.490281      3.946387
  H      -4.488811     -0.456052      4.757113
  H      -3.025004      0.538227      1.644654
  H      -1.928431      2.157780      0.442025
  H      -2.043130      2.280656     -1.342323
  H      -3.387330      1.539386     -0.413242
  H      -3.168588     -2.589115     -1.927319
  H      -4.824169     -1.947090     -3.679369
  H      -1.801654      0.359416     -5.702364
  H      -0.129063     -0.297866     -3.930435
  H       0.725383      0.341572      0.057814
  H       1.249767      1.209542     -1.424327
  H       3.386723      3.527278     -1.189189
  H       3.483126      5.253708      0.621688
  H       3.767030      4.492777      4.201915
  H       5.197988      5.165034      3.398113
  H       3.585340      5.791197      2.986631
  H       4.575442      2.206494      3.461078
  H       4.483605      0.487491      1.656580
  H       3.085182     -1.523142     -2.385728
  H       2.598958     -2.411892     -0.910051
  H      -0.771729     -5.137397      2.110698
  H      -0.652230     -6.065290      0.582636
  H      -2.247889     -5.466745      1.140261
  H      -2.392198     -3.614881      2.573681
60
Coordinates from ORCA-job file E -2653.519445792698
  C      -3.991310     -0.268575      3.789968
  O      -3.392463     -1.482609      3.386709
  C      -2.725437     -1.523864      2.220683
  C      -2.603948     -0.419376      1.368949
  C      -1.883832     -0.567310      0.175981
  O      -1.718499      0.427323     -0.709891
  C      -2.375543      1.661749     -0.505142
  C      -1.303862     -1.800709     -0.161518
  S      -0.341652     -1.996272     -1.666839
  C      -1.588349     -1.442436     -2.869517
  C      -2.894246     -1.922529     -2.775884
  C      -3.831360     -1.556898     -3.738933
  C      -3.439810     -0.720589     -4.785059
  Cl     -4.609326     -0.260696     -5.990030
  C      -2.132399     -0.249901     -4.886492
  C      -1.198375     -0.620391     -3.919123
  C       0.994756     -1.001757     -1.762954
  C       1.262725      0.250037     -0.943448
  N       2.629160     -0.284514     -0.660034
  S       3.933410      0.646653     -1.086089
  O       5.110680     -0.204262     -0.942568
  O       3.725027      1.314197     -2.371627
  C       3.934731      1.881531      0.182143
  C       3.700586      3.210677     -0.154497
  C       3.751778      4.176256      0.850405
  C       4.037015      3.824216      2.174611
  C       4.134357      4.872322      3.249532
  C       4.262352      2.472001      2.481531
  C       4.218653      1.496185      1.493615
  C       2.404452     -1.513565     -1.484049
  C      -1.438136     -2.900322      0.710133
  O      -0.867612     -4.050977      0.319645
  C      -1.018724     -5.195525      1.134835
  C      -2.152068     -2.762717      1.899275
  H      -4.754802      0.058889      3.068075
  H      -3.236841      0.524526      3.908428
  H      -4.466745     -0.462490      4.757048
  H      -3.051668      0.536828      1.624137
  H      -2.001313      2.162104      0.401000
  H      -2.146829      2.276871     -1.381581
  H      -3.463748      1.518948     -0.427264
  H      -3.189930     -2.573696     -1.950284
  H      -4.859136     -1.916569     -3.682858
  H      -1.850169      0.400032     -5.715322
  H      -0.163819     -0.272804     -3.963337
  H       0.685197      0.378957     -0.012725
  H       1.278944      1.209922     -1.490145
  H       3.486279      3.477405     -1.190244
  H       3.570368      5.223435      0.599581
  H       3.725166      4.502619      4.199430
  H       5.188817      5.136696      3.425200
  H       3.600647      5.787537      2.962800
  H       4.481991      2.185992      3.512404
  H       4.402138      0.446234      1.729206
  H       3.079479     -1.567306     -2.356581
  H       2.528425     -2.433196     -0.889959
  H      -0.563671     -5.039962      2.124630
  H      -0.501594     -6.011239      0.619515
  H      -2.081963     -5.452666      1.257149
  H      -2.287956     -3.584417      2.598876
60
Coordinates from ORCA-job file E -2653.519441182328
  C      -3.992779     -0.226553      3.770655
  O      -3.386616     -1.441762      3.381600
  C      -2.726539     -1.494619      2.212276
  C      -2.615334     -0.399912      1.346960
  C      -1.897606     -0.557444      0.153889
  O      -1.739295      0.429101     -0.742561
  C      -2.398023      1.664064     -0.546276
  C      -1.310948     -1.791426     -0.170886
  S      -0.343184     -1.995006     -1.671076
  C      -1.594776     -1.469627     -2.881655
  C      -2.894433     -1.965441     -2.785119
  C      -3.835921     -1.616132     -3.750043
  C      -3.454370     -0.781092     -4.801030
  Cl     -4.630837     -0.336197     -6.005069
  C      -2.151953     -0.297402     -4.906658
  C      -1.213764     -0.651029     -3.937100
  C       0.980729     -0.985668     -1.771467
  C       1.242995      0.261673     -0.943427
  N       2.617657     -0.260951     -0.677542
  S       3.910111      0.685984     -1.104889
  O       5.091483     -0.165358     -1.005068
  O       3.674418      1.384954     -2.368554
  C       3.934039      1.892846      0.189984
  C       3.670514      3.225252     -0.110038
  C       3.736539      4.169365      0.914178
  C       4.067814      3.793367      2.220820
  C       4.180155      4.819331      3.315576
  C       4.323463      2.438666      2.490650
  C       4.264078      1.483627      1.483287
  C       2.397786     -1.485073     -1.510469
  C      -1.436500     -2.881621      0.713590
  O      -0.859006     -4.033100      0.335059
  C      -0.992718     -5.166985      1.168399
  C      -2.145500     -2.733311      1.904434
  H      -4.760716      0.084536      3.045927
  H      -3.244787      0.574550      3.874835
  H      -4.463892     -0.410490      4.741711
  H      -3.068044      0.556388      1.592324
  H      -2.027178      2.170091      0.357982
  H      -2.168310      2.274478     -1.425750
  H      -3.486305      1.520474     -0.469896
  H      -3.182838     -2.613456     -1.954456
  H      -4.859732     -1.986437     -3.690961
  H      -1.877250      0.350173     -5.739872
  H      -0.183337     -0.291238     -3.982741
  H       0.673451      0.374357     -0.005667
  H       1.243849      1.227291     -1.480253
  H       3.418727      3.510741     -1.132234
  H       3.528770      5.218297      0.692802
  H       3.809789      4.420515      4.269651
  H       5.234433      5.100914      3.463401
  H       3.619596      5.729798      3.067432
  H       4.577516      2.133758      3.508182
  H       4.469609      0.431720      1.690127
  H       3.064965     -1.523881     -2.389854
  H       2.536502     -2.408975     -0.926246
  H      -0.528941     -4.992510      2.151063
  H      -0.474227     -5.985953      0.659733
  H      -2.052208     -5.431089      1.306183
  H      -2.271122     -3.546572      2.615646
60
Coordinates from ORCA-job file E -2653.519184083485
  C      -4.044465     -0.224705      3.736104
  O      -3.437367     -1.441515      3.353599
  C      -2.768027     -1.497410      2.189966
  C      -2.654493     -0.405832      1.320781
  C      -1.928496     -0.566740      0.133324
  O      -1.767655      0.414241     -0.768628
  C      -2.415153      1.655594     -0.575796
  C      -1.333736     -1.799622     -0.180034
  S      -0.350506     -1.998436     -1.667484
  C      -1.603602     -1.507292     -2.892951
  C      -2.892711     -2.030630     -2.804225
  C      -3.833399     -1.705649     -3.778686
  C      -3.460488     -0.867580     -4.830398
  Cl     -4.636162     -0.448563     -6.044945
  C      -2.166716     -0.359497     -4.929676
  C      -1.229542     -0.688455     -3.950596
  C       0.951133     -0.961362     -1.750257
  C       1.189057      0.282127     -0.910067
  N       2.579895     -0.209417     -0.663296
  S       3.848402      0.761661     -1.107491
  O       5.031405     -0.092615     -1.082970
  O       3.556830      1.503462     -2.333779
  C       3.928688      1.937909      0.212770
  C       3.651845      3.275224     -0.051342
  C       3.775583      4.203101      0.982097
  C       4.177535      3.805584      2.261785
  C       4.355710      4.815730      3.362700
  C       4.442239      2.446040      2.496633
  C       4.327415      1.506822      1.478963
  C       2.378061     -1.433984     -1.501771
  C      -1.459015     -2.885699      0.709142
  O      -0.872843     -4.036015      0.340438
  C      -1.002451     -5.164310      1.181263
  C      -2.176981     -2.734484      1.894076
  H      -4.802349      0.088810      3.001751
  H      -3.296106      0.575032      3.847904
  H      -4.527684     -0.407614      4.701292
  H      -3.114478      0.548999      1.557744
  H      -2.048242      2.155963      0.333120
  H      -2.171488      2.265163     -1.452123
  H      -3.505557      1.522788     -0.509832
  H      -3.173627     -2.681027     -1.972880
  H      -4.849441     -2.097741     -3.726897
  H      -1.898300      0.286760     -5.765976
  H      -0.205709     -0.309246     -3.989283
  H       0.627722      0.363370      0.036095
  H       1.159638      1.256161     -1.430342
  H       3.350453      3.576914     -1.055038
  H       3.560941      5.256066      0.788073
  H       4.030240      4.408124      4.329219
  H       5.418700      5.086120      3.460404
  H       3.792264      5.734259      3.154844
  H       4.751790      2.125943      3.493887
  H       4.543066      0.451568      1.656622
  H       3.040694     -1.454698     -2.385026
  H       2.538963     -2.358205     -0.923576
  H      -0.532914     -4.983443      2.160302
  H      -0.487455     -5.986780      0.674706
  H      -2.061134     -5.426853      1.327348
  H      -2.299976     -3.544116      2.609911
60
Coordinates from ORCA-job file E -2653.519358469069
  C      -4.006984     -0.228943      3.760465
  O      -3.406217     -1.446466      3.370467
  C      -2.744062     -1.500800      2.202417
  C      -2.633596     -0.407792      1.334482
  C      -1.916364     -0.568100      0.141458
  O      -1.760657      0.414002     -0.760278
  C      -2.404262      1.656154     -0.560309
  C      -1.325996     -1.801361     -0.178161
  S      -0.350081     -2.000042     -1.671876
  C      -1.601437     -1.492069     -2.891511
  C      -2.895776     -2.002117     -2.800978
  C      -3.835107     -1.665933     -3.772855
  C      -3.456038     -0.830064     -4.824052
  Cl     -4.629675     -0.399677     -6.036319
  C      -2.157784     -0.334027     -4.924542
  C      -1.221937     -0.674314     -3.948121
  C       0.959776     -0.972945     -1.759288
  C       1.202245      0.275843     -0.928100
  N       2.585723     -0.225788     -0.665423
  S       3.866777      0.731480     -1.102802
  O       5.046006     -0.126298     -1.041353
  O       3.603547      1.453669     -2.347614
  C       3.925416      1.923483      0.204571
  C       3.674564      3.261563     -0.081112
  C       3.777796      4.198029      0.946899
  C       4.132309      3.808512      2.243344
  C       4.285992      4.826879      3.340240
  C       4.372533      2.448255      2.499320
  C       4.277501      1.500643      1.487531
  C       2.381502     -1.454919     -1.495708
  C      -1.449308     -2.889252      0.709312
  O      -0.870082     -4.040758      0.333846
  C      -1.006031     -5.173178      1.168420
  C      -2.160986     -2.739466      1.898279
  H      -4.767743      0.090092      3.031736
  H      -3.254530      0.566968      3.872133
  H      -4.485529     -0.413794      4.727653
  H      -3.089646      0.547794      1.576195
  H      -2.025198      2.156361      0.343771
  H      -2.170047      2.265075     -1.439633
  H      -3.493954      1.525197     -0.480959
  H      -3.181599     -2.651416     -1.970441
  H      -4.855046     -2.047517     -3.719193
  H      -1.884618      0.311674     -5.759722
  H      -0.194480     -0.305430     -3.989010
  H       0.633464      0.371881      0.012104
  H       1.185939      1.244766     -1.458257
  H       3.408307      3.557601     -1.096388
  H       3.583282      5.251595      0.735775
  H       3.923895      4.432379      4.299200
  H       5.348350      5.085780      3.470351
  H       3.740794      5.749902      3.105168
  H       4.645778      2.133541      3.508779
  H       4.473297      0.444649      1.682770
  H       3.050958     -1.488102     -2.373360
  H       2.530410     -2.375484     -0.908607
  H      -0.540482     -4.998461      2.150317
  H      -0.490599     -5.994191      0.659930
  H      -2.065975     -5.434059      1.308595
  H      -2.284334     -3.551003      2.611945
60
Coordinates from ORCA-job file E -2653.519360828524
  C      -3.990595     -0.223088      3.766420
  O      -3.389722     -1.440855      3.377445
  C      -2.734830     -1.498129      2.205356
  C      -2.633383     -0.408712      1.331708
  C      -1.923568     -0.572302      0.134663
  O      -1.776719      0.405835     -0.772761
  C      -2.411906      1.651358     -0.567878
  C      -1.331180     -1.804944     -0.183115
  S      -0.355689     -2.003624     -1.677368
  C      -1.604822     -1.495922     -2.899176
  C      -2.899986     -2.003932     -2.810301
  C      -3.837281     -1.666616     -3.783811
  C      -3.455325     -0.831845     -4.834812
  Cl     -4.626498     -0.399691     -6.048768
  C      -2.156163     -0.337880     -4.933580
  C      -1.222432     -0.679263     -3.955612
  C       0.951894     -0.973577     -1.763266
  C       1.188159      0.277905     -0.934431
  N       2.571284     -0.219663     -0.665183
  S       3.853137      0.736193     -1.101508
  O       5.029408     -0.125873     -1.040933
  O       3.591331      1.461060     -2.345227
  C       3.916496      1.925808      0.207969
  C       3.682196      3.267075     -0.077219
  C       3.791801      4.201169      0.952322
  C       4.135891      3.806379      2.250156
  C       4.295179      4.821860      3.348940
  C       4.359579      2.443192      2.505510
  C       4.258046      1.497900      1.492233
  C       2.373252     -1.452490     -1.491268
  C      -1.445083     -2.889044      0.710251
  O      -0.862892     -4.039702      0.337074
  C      -0.993178     -5.170117      1.175336
  C      -2.150673     -2.736530      1.902505
  H      -4.755619      0.092484      3.040821
  H      -3.238438      0.574008      3.871877
  H      -4.463691     -0.405636      4.736734
  H      -3.090808      0.546636      1.571906
  H      -2.020671      2.150534      0.331644
  H      -2.183432      2.257988     -1.450270
  H      -3.501371      1.526499     -0.476945
  H      -3.188081     -2.652360     -1.979867
  H      -4.857997     -2.046222     -3.731168
  H      -1.880677      0.307145     -5.768518
  H      -0.194356     -0.312041     -3.995243
  H       0.615726      0.374107      0.003610
  H       1.171520      1.245726     -1.466435
  H       3.424020      3.567574     -1.093254
  H       3.610371      5.257061      0.741245
  H       3.921406      4.431591      4.305149
  H       5.359805      5.067226      3.486391
  H       3.763421      5.751847      3.110599
  H       4.624977      2.124022      3.515630
  H       4.441569      0.439696      1.687352
  H       3.047078     -1.488548     -2.365337
  H       2.520840     -2.370132     -0.899247
  H      -0.527846     -4.990233      2.156358
  H      -0.474341     -5.990309      0.668989
  H      -2.051822     -5.435314      1.317347
  H      -2.267311     -3.545286      2.620458
60
Coordinates from ORCA-job file E -2653.519199430424
  C      -3.916461     -0.171624      3.780236
  O      -3.304301     -1.388329      3.405427
  C      -2.686290     -1.464881      2.214322
  C      -2.636789     -0.399230      1.307313
  C      -1.962939     -0.582597      0.092391
  O      -1.863281      0.372495     -0.845239
  C      -2.461807      1.633041     -0.625366
  C      -1.356994     -1.812076     -0.211689
  S      -0.385644     -2.016389     -1.708453
  C      -1.627771     -1.519801     -2.940474
  C      -2.923899     -2.025162     -2.856951
  C      -3.854798     -1.689180     -3.837294
  C      -3.465124     -0.859371     -4.889340
  Cl     -4.628801     -0.426494     -6.110119
  C      -2.164285     -0.368874     -4.982826
  C      -1.237350     -0.708493     -3.998150
  C       0.910902     -0.971891     -1.792361
  C       1.120223      0.288743     -0.969871
  N       2.502148     -0.191193     -0.673968
  S       3.787666      0.761813     -1.098829
  O       4.950511     -0.120054     -1.056091
  O       3.528901      1.511849     -2.328520
  C       3.877288      1.928660      0.230325
  C       3.695209      3.282271     -0.035719
  C       3.832922      4.196301      1.008520
  C       4.153019      3.770685      2.303158
  C       4.338263      4.763726      3.418408
  C       4.325098      2.396492      2.538773
  C       4.194854      1.470824      1.510868
  C       2.330627     -1.436740     -1.486176
  C      -1.415099     -2.870647      0.717080
  O      -0.813645     -4.016359      0.359904
  C      -0.893778     -5.127272      1.230418
  C      -2.086925     -2.699381      1.926138
  H      -4.706822      0.112183      3.069196
  H      -3.174942      0.639701      3.845607
  H      -4.359054     -0.337586      4.767880
  H      -3.105384      0.553623      1.535449
  H      -2.019968      2.129983      0.251883
  H      -2.257627      2.227055     -1.522099
  H      -3.548705      1.535101     -0.485607
  H      -3.218296     -2.668500     -2.024751
  H      -4.877076     -2.064820     -3.787510
  H      -1.882391      0.272844     -5.818182
  H      -0.208582     -0.342903     -4.033150
  H       0.531899      0.382668     -0.041003
  H       1.101588      1.253269     -1.507216
  H       3.453984      3.608262     -1.048045
  H       3.691507      5.260915      0.811318
  H       3.935023      4.376827      4.364011
  H       5.409735      4.964110      3.574058
  H       3.848138      5.717610      3.185326
  H       4.572006      2.051768      3.545154
  H       4.338936      0.404234      1.692507
  H       3.022546     -1.481329     -2.345099
  H       2.473109     -2.343961     -0.876904
  H      -0.409541     -4.910203      2.194493
  H      -0.366337     -5.946800      0.731925
  H      -1.941261     -5.415187      1.406931
  H      -2.164139     -3.489724      2.669486
60
Coordinates from ORCA-job file E -2653.518974654385
  C      -3.829732     -0.107051      3.788985
  O      -3.197494     -1.318801      3.430681
  C      -2.623278     -1.417808      2.219383
  C      -2.634689     -0.380685      1.278905
  C      -2.000884     -0.585437      0.045999
  O      -1.952582      0.345898     -0.919238
  C      -2.519057      1.619296     -0.690248
  C      -1.381810     -1.811517     -0.246833
  S      -0.419750     -2.024548     -1.748959
  C      -1.658153     -1.539775     -2.986378
  C      -2.955662     -2.040211     -2.900093
  C      -3.885066     -1.706124     -3.882558
  C      -3.492355     -0.883879     -4.939418
  Cl     -4.655064     -0.450417     -6.160828
  C      -2.189615     -0.399059     -5.035690
  C      -1.264315     -0.736375     -4.048922
  C       0.871572     -0.972218     -1.839375
  C       1.058633      0.299289     -1.026805
  N       2.431469     -0.174363     -0.689129
  S       3.733909      0.766207     -1.084545
  O       4.878325     -0.139942     -1.043305
  O       3.501334      1.540706     -2.304276
  C       3.837671      1.911579      0.262852
  C       3.702685      3.274171      0.014324
  C       3.857288      4.168935      1.072928
  C       4.148121      3.716482      2.365513
  C       4.351303      4.688301      3.496330
  C       4.273138      2.334360      2.583332
  C       4.125240      1.427471      1.541055
  C       2.283043     -1.431428     -1.487286
  C      -1.374929     -2.839634      0.717499
  O      -0.750111     -3.978053      0.376087
  C      -0.748241     -5.055349      1.292161
  C      -2.003419     -2.645579      1.946166
  H      -4.652153      0.131449      3.097973
  H      -3.109070      0.725251      3.802787
  H      -4.233323     -0.252661      4.796441
  H      -3.115323      0.568662      1.495936
  H      -2.031454      2.117815      0.161628
  H      -2.341508      2.199234     -1.601681
  H      -3.600686      1.544326     -0.503924
  H      -3.253010     -2.675302     -2.062598
  H      -4.909209     -2.076036     -3.829189
  H      -1.905043      0.237732     -5.873919
  H      -0.234794     -0.373152     -4.085385
  H       0.446355      0.402677     -0.114215
  H       1.052581      1.257214     -1.575793
  H       3.484232      3.623071     -0.995539
  H       3.752907      5.240070      0.888193
  H       3.924163      4.302540      4.431939
  H       5.426488      4.852579      3.668064
  H       3.895057      5.660599      3.270142
  H       4.496210      1.967088      3.587348
  H       4.233164      0.354702      1.710734
  H       2.998499     -1.489789     -2.325468
  H       2.407944     -2.329225     -0.860276
  H      -0.225681     -4.783021      2.221516
  H      -0.216649     -5.875801      0.799678
  H      -1.774684     -5.370923      1.532895
  H      -2.032541     -3.413540      2.715899
60
Coordinates from ORCA-job file E -2653.518870534243
  C      -3.762760     -0.085197      3.809654
  O      -3.122942     -1.292904      3.450140
  C      -2.582329     -1.400608      2.224379
  C      -2.628674     -0.374099      1.273940
  C      -2.024730     -0.585638      0.027425
  O      -2.002272      0.341391     -0.942997
  C      -2.537755      1.624772     -0.695700
  C      -1.407453     -1.811725     -0.271941
  S      -0.451539     -2.026601     -1.778037
  C      -1.680831     -1.534209     -3.017740
  C      -2.982915     -2.022559     -2.933074
  C      -3.906555     -1.683931     -3.919241
  C      -3.503859     -0.869094     -4.978121
  Cl     -4.659283     -0.430550     -6.204559
  C      -2.196946     -0.395324     -5.071969
  C      -1.277145     -0.737290     -4.081677
  C       0.850776     -0.984884     -1.869013
  C       1.032146      0.294213     -1.065079
  N       2.388482     -0.191844     -0.683401
  S       3.716452      0.724037     -1.049924
  O       4.843506     -0.201489     -0.975384
  O       3.527994      1.493972     -2.279684
  C       3.812439      1.878289      0.290694
  C       3.698648      3.240451      0.029827
  C       3.850069      4.141961      1.083185
  C       4.119180      3.697144      2.382803
  C       4.323245      4.675920      3.507469
  C       4.223145      2.315366      2.613298
  C       4.077108      1.401647      1.576439
  C       2.245089     -1.457578     -1.468317
  C      -1.361886     -2.827651      0.704261
  O      -0.724533     -3.959662      0.362495
  C      -0.645220     -5.008731      1.307770
  C      -1.954940     -2.624173      1.948682
  H      -4.609299      0.129247      3.139889
  H      -3.055676      0.758421      3.789219
  H      -4.134677     -0.221491      4.830534
  H      -3.108116      0.574865      1.495054
  H      -2.016923      2.111940      0.143088
  H      -2.374514      2.203436     -1.610657
  H      -3.615122      1.570924     -0.480015
  H      -3.288050     -2.650910     -2.093277
  H      -4.934089     -2.044420     -3.867005
  H      -1.904535      0.236936     -5.910937
  H      -0.244771     -0.382239     -4.116601
  H       0.396158      0.418285     -0.171435
  H       1.053624      1.244393     -1.627055
  H       3.499005      3.584845     -0.985557
  H       3.762362      5.212860      0.888152
  H       3.885437      4.301706      4.442883
  H       5.398676      4.831029      3.686627
  H       3.878709      5.651285      3.270549
  H       4.427425      1.953109      3.623222
  H       4.169056      0.329126      1.756842
  H       2.983656     -1.538949     -2.284070
  H       2.337702     -2.348248     -0.825624
  H      -0.081949     -4.694425      2.199450
  H      -0.117447     -5.829377      0.811551
  H      -1.648478     -5.343492      1.611500
  H      -1.951881     -3.382279      2.728568
60
Coordinates from ORCA-job file E -2653.519029954092
  C      -3.784895     -0.180429      3.851298
  O      -3.154081     -1.382133      3.456957
  C      -2.611323     -1.458657      2.230601
  C      -2.634416     -0.398926      1.317411
  C      -2.025315     -0.576132      0.068410
  O      -1.972367      0.390628     -0.861400
  C      -2.493982      1.671309     -0.570098
  C      -1.432250     -1.804418     -0.272160
  S      -0.472291     -2.005243     -1.776869
  C      -1.681139     -1.467548     -3.013074
  C      -2.993043     -1.932137     -2.940076
  C      -3.901698     -1.579720     -3.934639
  C      -3.475490     -0.772729     -4.990426
  Cl     -4.609844     -0.326210     -6.233620
  C      -2.161260     -0.317389     -5.069925
  C      -1.255340     -0.674260     -4.071508
  C       0.874492     -1.014589     -1.853793
  C       1.088417      0.263603     -1.053520
  N       2.414380     -0.275366     -0.628544
  S       3.783724      0.591925     -0.971390
  O       4.895678     -0.337229     -0.795978
  O       3.669952      1.294709     -2.248187
  C       3.833842      1.818395      0.305040
  C       3.684747      3.159330     -0.033130
  C       3.795500      4.122604      0.969128
  C       4.064156      3.758901      2.292477
  C       4.238516      4.804098      3.360841
  C       4.202628      2.395678      2.602200
  C       4.095951      1.420926      1.616773
  C       2.234877     -1.540910     -1.407336
  C      -1.406826     -2.853315      0.668845
  O      -0.774187     -3.978879      0.295433
  C      -0.643016     -5.029560      1.232668
  C      -1.994104     -2.679742      1.919877
  H      -4.638766      0.050961      3.195450
  H      -3.077487      0.662780      3.840419
  H      -4.147462     -0.338434      4.872308
  H      -3.093276      0.551736      1.572347
  H      -1.977277      2.120458      0.292072
  H      -2.314216      2.281944     -1.461144
  H      -3.574845      1.623106     -0.370944
  H      -3.315133     -2.556482     -2.103605
  H      -4.934670     -1.926089     -3.894463
  H      -1.851310      0.310639     -5.905750
  H      -0.216884     -0.336842     -4.097659
  H       0.434105      0.432353     -0.181109
  H       1.166166      1.202795     -1.629772
  H       3.490748      3.440049     -1.069277
  H       3.681429      5.178574      0.714241
  H       3.819145      4.464919      4.317787
  H       5.309047      5.004634      3.524882
  H       3.759870      5.750466      3.076265
  H       4.403533      2.097693      3.633795
  H       4.214606      0.362697      1.857048
  H       2.991210     -1.663168     -2.201895
  H       2.269235     -2.429422     -0.755941
  H      -0.043772     -4.711027      2.099565
  H      -0.127714     -5.843167      0.712318
  H      -1.628802     -5.377005      1.575599
  H      -1.997471     -3.460753      2.676679
60
Coordinates from ORCA-job file E -2653.519169636401
  C      -3.943744     -0.287177      3.826468
  O      -3.313053     -1.483452      3.416786
  C      -2.698693     -1.521085      2.223157
  C      -2.641119     -0.421884      1.359524
  C      -1.967326     -0.561993      0.139339
  O      -1.840198      0.440424     -0.744421
  C      -2.412078      1.701962     -0.460905
  C      -1.388250     -1.790650     -0.221413
  S      -0.421958     -1.982656     -1.722660
  C      -1.635496     -1.411286     -2.940341
  C      -2.950093     -1.870173     -2.864135
  C      -3.864250     -1.502718     -3.847713
  C      -3.441705     -0.684584     -4.896465
  Cl     -4.581686     -0.225981     -6.130211
  C      -2.126908     -0.231595     -4.978040
  C      -1.214798     -0.604111     -3.990308
  C       0.948552     -1.024117     -1.801633
  C       1.210643      0.236178     -0.988204
  N       2.540168     -0.336718     -0.609458
  S       3.901588      0.537064     -0.981698
  O       5.042935     -0.347287     -0.771598
  O       3.777167      1.184864     -2.285835
  C       3.901685      1.806018      0.252148
  C       3.665083      3.123223     -0.124765
  C       3.721972      4.121135      0.847508
  C       4.022390      3.812997      2.177493
  C       4.143234      4.896623      3.214163
  C       4.247124      2.471090      2.527007
  C       4.196139      1.462731      1.571585
  C       2.313612     -1.580638     -1.411613
  C      -1.446409     -2.881496      0.669188
  O      -0.840912     -4.014393      0.273774
  C      -0.783839     -5.103811      1.172440
  C      -2.096107     -2.745001      1.893695
  H      -4.763849     -0.018596      3.141741
  H      -3.226915      0.546508      3.877464
  H      -4.355111     -0.476447      4.823315
  H      -3.090928      0.528378      1.631656
  H      -1.968271      2.143116      0.444566
  H      -2.187740      2.337445     -1.324167
  H      -3.502718      1.621700     -0.340303
  H      -3.268524     -2.504959     -2.034241
  H      -4.897774     -1.847815     -3.807598
  H      -1.821264      0.406198     -5.807994
  H      -0.175184     -0.270725     -4.018859
  H       0.584365      0.411183     -0.097099
  H       1.292233      1.180303     -1.556480
  H       3.446993      3.357576     -1.167737
  H       3.540870      5.160516      0.564750
  H       3.765073      4.554720      4.187067
  H       5.200818      5.171681      3.352256
  H       3.596836      5.800966      2.915756
  H       4.473491      2.219351      3.565638
  H       4.380727      0.420581      1.839488
  H       3.041764     -1.693984     -2.234331
  H       2.355519     -2.485434     -0.783621
  H      -0.215138     -4.837922      2.076996
  H      -0.269824     -5.913062      0.644046
  H      -1.794575     -5.434067      1.454355
  H      -2.164541     -3.558715      2.611979
60
Coordinates from ORCA-job file E -2653.519539487802
  C      -3.901827     -0.209953      3.815182
  O      -3.284674     -1.418159      3.421211
  C      -2.668238     -1.477113      2.228638
  C      -2.609774     -0.394261      1.343483
  C      -1.936631     -0.558078      0.125197
  O      -1.819894      0.420620     -0.786084
  C      -2.419907      1.676876     -0.544012
  C      -1.347890     -1.788513     -0.207499
  S      -0.388185     -1.994577     -1.713119
  C      -1.621245     -1.447441     -2.926667
  C      -2.927386     -1.928460     -2.841763
  C      -3.855771     -1.569287     -3.815313
  C      -3.455404     -0.739027     -4.863170
  Cl     -4.614385     -0.288896     -6.082006
  C      -2.147676     -0.267981     -4.955917
  C      -1.222028     -0.631158     -3.977681
  C       0.958238     -1.009410     -1.812492
  C       1.212507      0.254034     -1.003856
  N       2.560057     -0.292811     -0.657717
  S       3.895092      0.612054     -1.047552
  O       5.052127     -0.261843     -0.883336
  O       3.729994      1.291100     -2.332726
  C       3.900882      1.841397      0.226004
  C       3.653052      3.170565     -0.100539
  C       3.709679      4.130936      0.909030
  C       4.016348      3.774124      2.226912
  C       4.123266      4.817147      3.305747
  C       4.254814      2.422008      2.523692
  C       4.204353      1.450947      1.531211
  C       2.347227     -1.535664     -1.464000
  C      -1.418323     -2.866815      0.698698
  O      -0.842540     -4.017027      0.311602
  C      -0.860226     -5.118287      1.198056
  C      -2.080684     -2.711524      1.915018
  H      -4.705855      0.068884      3.116715
  H      -3.171356      0.611538      3.874125
  H      -4.329981     -0.387463      4.807154
  H      -3.067006      0.558508      1.593665
  H      -1.993502      2.152431      0.352191
  H      -2.201681      2.292000     -1.423247
  H      -3.509339      1.576349     -0.427156
  H      -3.229194     -2.573379     -2.013651
  H      -4.883708     -1.929702     -3.767336
  H      -1.858470      0.375877     -5.787089
  H      -0.187233     -0.283960     -4.014737
  H       0.603240      0.409447     -0.097542
  H       1.262160      1.202682     -1.567217
  H       3.425674      3.442626     -1.132036
  H       3.516106      5.178074      0.667265
  H       3.747333      4.433564      4.263777
  H       5.177187      5.099251      3.455497
  H       3.566150      5.724927      3.040995
  H       4.489706      2.132059      3.550099
  H       4.399864      0.401271      1.758245
  H       3.057863     -1.623395     -2.305037
  H       2.428094     -2.443240     -0.843945
  H      -0.329615     -4.878691      2.132117
  H      -0.345099     -5.935871      0.683755
  H      -1.891974     -5.422877      1.428797
  H      -2.164313     -3.516432      2.641862
60
Coordinates from ORCA-job file E -2653.519501945606
  C      -3.910530     -0.195868      3.793666
  O      -3.308567     -1.413144      3.404967
  C      -2.685051     -1.480508      2.216182
  C      -2.615439     -0.402012      1.326001
  C      -1.934678     -0.575285      0.113173
  O      -1.817396      0.392260     -0.809749
  C      -2.410174      1.653493     -0.578177
  C      -1.344602     -1.808085     -0.206940
  S      -0.374845     -2.010444     -1.706351
  C      -1.614653     -1.485915     -2.926571
  C      -2.916544     -1.976850     -2.837257
  C      -3.850564     -1.624100     -3.808168
  C      -3.459341     -0.791098     -4.857164
  Cl     -4.626788     -0.341747     -6.068225
  C      -2.154541     -0.312741     -4.955578
  C      -1.223699     -0.669467     -3.980244
  C       0.945814     -0.993537     -1.796930
  C       1.179116      0.268325     -0.981055
  N       2.545686     -0.245464     -0.662659
  S       3.855471      0.686514     -1.070652
  O       5.020480     -0.184766     -0.953940
  O       3.648206      1.392758     -2.335547
  C       3.890389      1.891358      0.225841
  C       3.659151      3.229902     -0.074820
  C       3.750928      4.172471      0.948881
  C       4.074309      3.788850      2.255708
  C       4.217491      4.813412      3.348147
  C       4.294820      2.428208      2.526293
  C       4.210455      1.474701      1.519360
  C       2.352498     -1.488531     -1.474061
  C      -1.431002     -2.883363      0.701343
  O      -0.857047     -4.037470      0.324927
  C      -0.922482     -5.145554      1.200590
  C      -2.104792     -2.720054      1.910661
  H      -4.698102      0.101500      3.084811
  H      -3.164401      0.610400      3.868101
  H      -4.355877     -0.369467      4.778766
  H      -3.074321      0.552659      1.566167
  H      -1.978664      2.133493      0.313287
  H      -2.189898      2.260066     -1.462663
  H      -3.499750      1.560067     -0.456333
  H      -3.211851     -2.623015     -2.007667
  H      -4.876449     -1.989496     -3.755091
  H      -1.872547      0.332739     -5.787956
  H      -0.191441     -0.314877     -4.020175
  H       0.581533      0.392356     -0.062009
  H       1.193008      1.225716     -1.531086
  H       3.418712      3.522594     -1.097537
  H       3.571971      5.226437      0.726572
  H       3.839322      4.427314      4.304278
  H       5.279377      5.067183      3.491695
  H       3.681226      5.737944      3.099138
  H       4.545746      2.117766      3.542786
  H       4.394570      0.418772      1.725559
  H       3.052812     -1.553174     -2.325417
  H       2.465260     -2.397233     -0.860893
  H      -0.422917     -4.922279      2.155258
  H      -0.402032     -5.966633      0.697362
  H      -1.966659     -5.435271      1.393413
  H      -2.200711     -3.521810      2.639484
60
Coordinates from ORCA-job file E -2653.518918299892
  C      -3.956002     -0.187333      3.753835
  O      -3.364314     -1.412964      3.376443
  C      -2.728691     -1.489824      2.194412
  C      -2.652029     -0.419078      1.294968
  C      -1.961887     -0.604144      0.089564
  O      -1.848030      0.347773     -0.849631
  C      -2.415828      1.621364     -0.624814
  C      -1.358800     -1.836368     -0.208414
  S      -0.369713     -2.028757     -1.694461
  C      -1.614271     -1.548788     -2.934105
  C      -2.906095     -2.064883     -2.849490
  C      -3.841078     -1.734635     -3.828096
  C      -3.459102     -0.900314     -4.879250
  Cl     -4.628826     -0.469644     -6.095187
  C      -2.161629     -0.401177     -4.975048
  C      -1.230819     -0.735046     -3.992152
  C       0.906921     -0.960198     -1.761145
  C       1.100880      0.296277     -0.929287
  N       2.496766     -0.157655     -0.655674
  S       3.760477      0.818922     -1.095546
  O       4.932783     -0.051248     -1.081733
  O       3.468798      1.580295     -2.311110
  C       3.869896      1.977693      0.238563
  C       3.679561      3.331957     -0.018660
  C       3.851387      4.243150      1.022799
  C       4.212721      3.813436      2.305447
  C       4.439137      4.805385      3.414185
  C       4.389702      2.438438      2.532867
  C       4.227018      1.515577      1.507177
  C       2.338643     -1.400911     -1.475399
  C      -1.451575     -2.902781      0.708261
  O      -0.864532     -4.055564      0.350672
  C      -0.982986     -5.173530      1.207894
  C      -2.143200     -2.730890      1.906468
  H      -4.724593      0.125645      3.031685
  H      -3.195716      0.604113      3.845164
  H      -4.421419     -0.355037      4.730630
  H      -3.118482      0.535800      1.519535
  H      -1.967766      2.098936      0.260082
  H      -2.189837      2.217124     -1.515083
  H      -3.505807      1.550140     -0.492561
  H      -3.194605     -2.711548     -2.017719
  H      -4.861015     -2.116374     -3.776591
  H      -1.886486      0.243543     -5.810323
  H      -0.204767     -0.361741     -4.027514
  H       0.524530      0.364041      0.009460
  H       1.053624      1.267343     -1.452840
  H       3.410047      3.660022     -1.023025
  H       3.707103      5.308518      0.832078
  H       4.061016      4.423218      4.371911
  H       5.516357      4.997920      3.535907
  H       3.949383      5.762253      3.193348
  H       4.670830      2.091984      3.529521
  H       4.378720      0.448559      1.679597
  H       3.022703     -1.428333     -2.341106
  H       2.503513     -2.308821     -0.872991
  H      -0.524681     -4.971431      2.187444
  H      -0.452246     -5.995091      0.716340
  H      -2.038911     -5.449467      1.352681
  H      -2.246776     -3.525848      2.641518
60
Coordinates from ORCA-job file E -2653.519355290137
  C      -3.934604     -0.197242      3.779098
  O      -3.331597     -1.415599      3.395270
  C      -2.705369     -1.485456      2.208059
  C      -2.637514     -0.410099      1.313928
  C      -1.954919     -0.586532      0.102905
  O      -1.840989      0.376686     -0.824869
  C      -2.415230      1.645653     -0.588334
  C      -1.358065     -1.818499     -0.209738
  S      -0.380390     -2.016537     -1.703418
  C      -1.619486     -1.510101     -2.934078
  C      -2.918247     -2.009156     -2.849072
  C      -3.849509     -1.667043     -3.826730
  C      -3.457863     -0.837026     -4.877889
  Cl     -4.621918     -0.397443     -6.095971
  C      -2.155156     -0.351929     -4.972541
  C      -1.227539     -0.697897     -3.990495
  C       0.925132     -0.980757     -1.782128
  C       1.142677      0.279050     -0.959755
  N       2.520882     -0.211703     -0.658085
  S       3.813256      0.736621     -1.079895
  O       4.981410     -0.135808     -1.006906
  O       3.570659      1.465819     -2.325159
  C       3.881725      1.923647      0.231872
  C       3.673429      3.269461     -0.052706
  C       3.799557      4.200468      0.977841
  C       4.134847      3.798586      2.275999
  C       4.314142      4.810813      3.374819
  C       4.331381      2.431165      2.530822
  C       4.213152      1.488874      1.516593
  C       2.340466     -1.456196     -1.470820
  C      -1.439592     -2.888963      0.703639
  O      -0.852591     -4.039119      0.336060
  C      -0.927022     -5.149566      1.207897
  C      -2.117326     -2.723248      1.910298
  H      -4.720390      0.100012      3.068317
  H      -3.186845      0.607477      3.854291
  H      -4.382053     -0.368235      4.763704
  H      -3.099755      0.544127      1.549304
  H      -1.971522      2.117757      0.301561
  H      -2.191033      2.250723     -1.472872
  H      -3.505237      1.567836     -0.460330
  H      -3.213988     -2.652612     -2.017432
  H      -4.873641     -2.037591     -3.776126
  H      -1.872687      0.290965     -5.806780
  H      -0.197307     -0.336609     -4.026346
  H       0.552307      0.381181     -0.033050
  H       1.133105      1.242403     -1.499681
  H       3.423286      3.576228     -1.068933
  H       3.639264      5.259809      0.766930
  H       3.929974      4.429648      4.330563
  H       5.383621      5.033252      3.513711
  H       3.803200      5.751936      3.134508
  H       4.590290      2.106130      3.540749
  H       4.378061      0.427523      1.710935
  H       3.035404     -1.508780     -2.327011
  H       2.471923     -2.363950     -0.859880
  H      -0.437394     -4.930781      2.168775
  H      -0.402087     -5.969309      0.707154
  H      -1.973397     -5.438418      1.389898
  H      -2.210888     -3.521642      2.643028
60
Coordinates from ORCA-job file E -2653.519319060559
  C      -3.923651     -0.190285      3.782303
  O      -3.315046     -1.406872      3.401350
  C      -2.697020     -1.479476      2.210084
  C      -2.642620     -0.408786      1.309518
  C      -1.968051     -0.587785      0.094441
  O      -1.863813      0.372339     -0.837668
  C      -2.427587      1.645043     -0.595927
  C      -1.368231     -1.818734     -0.216962
  S      -0.391445     -2.017646     -1.710759
  C      -1.627158     -1.512220     -2.944466
  C      -2.926532     -2.009922     -2.862842
  C      -3.854177     -1.668797     -3.844309
  C      -3.458239     -0.841212     -4.895808
  Cl     -4.617569     -0.403169     -6.118950
  C      -2.154834     -0.357315     -4.986882
  C      -1.230907     -0.702171     -4.001011
  C       0.914002     -0.981336     -1.787169
  C       1.126607      0.279511     -0.964949
  N       2.503557     -0.209711     -0.656469
  S       3.797716      0.736472     -1.075619
  O       4.962481     -0.141096     -1.007925
  O       3.554948      1.470979     -2.317494
  C       3.873612      1.920098      0.239051
  C       3.673146      3.267609     -0.043162
  C       3.806174      4.196526      0.988419
  C       4.140757      3.791137      2.285547
  C       4.326845      4.800749      3.385718
  C       4.329381      2.422152      2.538152
  C       4.204187      1.481857      1.522844
  C       2.327104     -1.456558     -1.466371
  C      -1.433754     -2.883518      0.704150
  O      -0.838804     -4.030701      0.339905
  C      -0.894158     -5.135231      1.220625
  C      -2.102362     -2.714907      1.915350
  H      -4.717810      0.096176      3.076328
  H      -3.181254      0.620341      3.845707
  H      -4.361581     -0.357823      4.771789
  H      -3.107553      0.544423      1.543553
  H      -1.974013      2.113510      0.290923
  H      -2.205723      2.249193     -1.481719
  H      -3.517156      1.575045     -0.460257
  H      -3.225618     -2.651110     -2.030652
  H      -4.878779     -2.038363     -3.796346
  H      -1.868845      0.283786     -5.821311
  H      -0.200310     -0.341653     -4.034054
  H       0.531958      0.381977     -0.040901
  H       1.118813      1.242348     -1.505807
  H       3.423194      3.577351     -1.058526
  H       3.651902      5.257057      0.778956
  H       3.938860      4.421339      4.340662
  H       5.397811      5.014816      3.526235
  H       3.823449      5.746160      3.146231
  H       4.587167      2.094049      3.547394
  H       4.362615      0.419299      1.716014
  H       3.026793     -1.512171     -2.318447
  H       2.454902     -2.362442     -0.851812
  H      -0.394281     -4.906012      2.173839
  H      -0.369183     -5.954630      0.719364
  H      -1.935935     -5.430419      1.417717
  H      -2.183983     -3.509270      2.653903
60
Coordinates from ORCA-job file E -2653.518805783862
  C      -3.815765     -0.121761      3.806351
  O      -3.168832     -1.324818      3.443502
  C      -2.616524     -1.422530      2.222504
  C      -2.659978     -0.389786      1.278736
  C      -2.045852     -0.590925      0.035666
  O      -2.011356      0.345036     -0.925975
  C      -2.518787      1.637382     -0.664115
  C      -1.428846     -1.815540     -0.269019
  S      -0.464187     -2.023659     -1.768009
  C      -1.681317     -1.521856     -3.014702
  C      -2.985366     -2.007740     -2.946617
  C      -3.895227     -1.670198     -3.945795
  C      -3.476965     -0.858510     -5.001224
  Cl     -4.613502     -0.427507     -6.247977
  C      -2.168920     -0.384956     -5.077365
  C      -1.262809     -0.725507     -4.073712
  C       0.846568     -0.990546     -1.840212
  C       1.031196      0.280269     -1.024042
  N       2.390011     -0.211227     -0.652011
  S       3.710669      0.709444     -1.034134
  O       4.847572     -0.205061     -0.974323
  O       3.497227      1.472957     -2.262502
  C       3.815783      1.874516      0.296269
  C       3.660570      3.230392      0.025445
  C       3.823251      4.147314      1.063570
  C       4.144469      3.723060      2.357417
  C       4.362467      4.717410      3.465821
  C       4.287377      2.346441      2.599353
  C       4.131486      1.417592      1.577452
  C       2.236856     -1.472980     -1.442328
  C      -1.384161     -2.837287      0.700895
  O      -0.745448     -3.966931      0.352917
  C      -0.645483     -5.012199      1.300034
  C      -1.981556     -2.642127      1.944292
  H      -4.668202      0.084264      3.140778
  H      -3.117448      0.728772      3.781001
  H      -4.182160     -0.260095      4.828961
  H      -3.142926      0.556397      1.503699
  H      -2.007884      2.094642      0.197005
  H      -2.318920      2.229800     -1.563184
  H      -3.602694      1.607889     -0.478510
  H      -3.301984     -2.633779     -2.109461
  H      -4.923357     -2.030942     -3.908429
  H      -1.864609      0.244892     -5.913937
  H      -0.229534     -0.372095     -4.095447
  H       0.399127      0.399334     -0.126687
  H       1.051999      1.234955     -1.578478
  H       3.421794      3.556883     -0.987300
  H       3.704277      5.213738      0.860860
  H       3.954360      4.345677      4.415623
  H       5.439667      4.888767      3.616930
  H       3.898159      5.684075      3.231832
  H       4.531904      2.001791      3.606485
  H       4.254372      0.349381      1.765374
  H       2.974875     -1.555715     -2.258964
  H       2.325152     -2.366564     -0.802864
  H      -0.064859     -4.693255      2.179206
  H      -0.125213     -5.833562      0.797128
  H      -1.641527     -5.348776      1.623673
  H      -1.978991     -3.404638      2.720041
60
Coordinates from ORCA-job file E -2653.519244180359
  C      -3.879947     -0.170490      3.798665
  O      -3.259938     -1.382386      3.420369
  C      -2.668351     -1.461748      2.216379
  C      -2.650367     -0.402296      1.301430
  C      -1.999439     -0.586479      0.074352
  O      -1.920907      0.367811     -0.866358
  C      -2.464999      1.646682     -0.612244
  C      -1.394524     -1.814811     -0.238056
  S      -0.421698     -2.016730     -1.733560
  C      -1.648078     -1.510051     -2.972865
  C      -2.949473     -2.003155     -2.898454
  C      -3.868401     -1.664465     -3.888838
  C      -3.461941     -0.843925     -4.941915
  Cl     -4.610079     -0.411059     -6.177357
  C      -2.156754     -0.363593     -5.024993
  C      -1.241393     -0.705930     -4.030275
  C       0.889624     -0.986144     -1.807645
  C       1.092333      0.280499     -0.990596
  N       2.459430     -0.213766     -0.649352
  S       3.768884      0.716763     -1.053379
  O       4.920684     -0.177333     -0.980395
  O       3.544370      1.457605     -2.294431
  C       3.854327      1.898707      0.262595
  C       3.666213      3.247919     -0.020152
  C       3.807976      4.176617      1.010482
  C       4.140618      3.769768      2.307406
  C       4.337002      4.778173      3.406915
  C       4.317275      2.399249      2.560752
  C       4.182375      1.458984      1.546546
  C       2.290536     -1.468790     -1.447778
  C      -1.419323     -2.866808      0.699727
  O      -0.808865     -4.007275      0.338639
  C      -0.801005     -5.092101      1.245410
  C      -2.060003     -2.691421      1.924689
  H      -4.697507      0.088933      3.108810
  H      -3.152149      0.654974      3.829158
  H      -4.289658     -0.329728      4.801518
  H      -3.121292      0.548089      1.534724
  H      -1.991520      2.108065      0.267834
  H      -2.250576      2.250154     -1.500415
  H      -3.553103      1.590253     -0.459655
  H      -3.256521     -2.638446     -2.064657
  H      -4.894300     -2.031116     -3.846985
  H      -1.862227      0.272354     -5.860413
  H      -0.209553     -0.348646     -4.057660
  H       0.479356      0.395459     -0.079997
  H       1.101694      1.238049     -1.540525
  H       3.418674      3.559458     -1.035536
  H       3.662853      5.238283      0.800128
  H       3.944995      4.402912      4.361940
  H       5.410053      4.980758      3.548665
  H       3.843989      5.729129      3.167623
  H       4.572561      2.069503      3.570133
  H       4.331602      0.395359      1.741220
  H       3.009375     -1.541570     -2.282388
  H       2.395800     -2.368086     -0.819229
  H      -0.267959     -4.828162      2.171450
  H      -0.276184     -5.909980      0.741506
  H      -1.825732     -5.408077      1.492006
  H      -2.108834     -3.475942      2.676531
60
Coordinates from ORCA-job file E -2653.519224543278
  C      -3.868214     -0.167847      3.802653
  O      -3.244106     -1.377779      3.424772
  C      -2.659984     -1.458433      2.217271
  C      -2.652057     -0.401701      1.299110
  C      -2.007764     -0.586788      0.068659
  O      -1.936420      0.366023     -0.874162
  C      -2.477876      1.645530     -0.617844
  C      -1.401329     -1.814061     -0.244672
  S      -0.429616     -2.015991     -1.741010
  C      -1.653454     -1.507364     -2.980776
  C      -2.955758     -1.998213     -2.906951
  C      -3.873460     -1.658392     -3.898019
  C      -3.465022     -0.838937     -4.951193
  Cl     -4.611719     -0.404995     -6.187564
  C      -2.159076     -0.360636     -5.033541
  C      -1.244821     -0.704037     -4.038127
  C       0.884687     -0.988339     -1.815114
  C       1.085638      0.280572     -1.000456
  N       2.447735     -0.217759     -0.645358
  S       3.765005      0.705333     -1.041401
  O       4.911617     -0.194496     -0.959294
  O       3.552680      1.445403     -2.284951
  C       3.849513      1.889836      0.272251
  C       3.662795      3.238525     -0.013957
  C       3.806147      4.169817      1.014080
  C       4.139306      3.766043      2.311781
  C       4.338655      4.777123      3.408257
  C       4.314205      2.395955      2.568736
  C       4.177594      1.453102      1.557150
  C       2.280402     -1.475231     -1.440277
  C      -1.415830     -2.863327      0.696512
  O      -0.803370     -4.002641      0.334788
  C      -0.774227     -5.080129      1.249786
  C      -2.048528     -2.686561      1.925332
  H      -4.692884      0.083183      3.118096
  H      -3.145563      0.662439      3.823083
  H      -4.269106     -0.324969      4.809388
  H      -3.124738      0.547702      1.532753
  H      -2.000012      2.106846      0.259892
  H      -2.266892      2.248494     -1.507200
  H      -3.565355      1.590396     -0.460418
  H      -3.264297     -2.632429     -2.072911
  H      -4.899983     -2.023357     -3.856720
  H      -1.863050      0.274706     -5.868889
  H      -0.212441     -0.348412     -4.065130
  H       0.465421      0.402129     -0.095654
  H       1.103652      1.235617     -1.554384
  H       3.416011      3.547799     -1.030217
  H       3.662472      5.231131      0.800944
  H       3.948016      4.404671      4.364935
  H       5.412182      4.978817      3.547726
  H       3.846359      5.728086      3.167525
  H       4.570103      2.068654      3.578753
  H       4.326439      0.389905      1.754435
  H       3.006769     -1.555165     -2.267679
  H       2.375349     -2.372413     -0.807002
  H      -0.230780     -4.804019      2.166253
  H      -0.249271     -5.897540      0.745253
  H      -1.792789     -5.402888      1.512345
  H      -2.088959     -3.468990      2.679853
60
Coordinates from ORCA-job file E -2653.519174745375
  C      -3.844550     -0.169255      3.810853
  O      -3.213413     -1.374893      3.431200
  C      -2.643706     -1.456233      2.216883
  C      -2.652321     -0.402422      1.295509
  C      -2.019608     -0.587136      0.058937
  O      -1.961076      0.364149     -0.886433
  C      -2.507361      1.641070     -0.628382
  C      -1.411103     -1.812018     -0.258428
  S      -0.441025     -2.012118     -1.757009
  C      -1.661243     -1.497495     -2.994776
  C      -2.965634     -1.982922     -2.917394
  C      -3.884806     -1.638763     -3.905334
  C      -3.476300     -0.820178     -4.959188
  Cl     -4.625369     -0.381199     -6.191468
  C      -2.168761     -0.347129     -5.045097
  C      -1.252576     -0.694744     -4.052708
  C       0.882347     -0.993497     -1.833897
  C       1.082945      0.282053     -1.027292
  N       2.429316     -0.230487     -0.633286
  S       3.770180      0.670855     -1.004003
  O       4.903121     -0.241553     -0.885014
  O       3.599002      1.402673     -2.258604
  C       3.843426      1.867921      0.298219
  C       3.653663      3.212982     -0.002809
  C       3.796731      4.155708      1.014624
  C       4.133647      3.766493      2.315765
  C       4.337729      4.790039      3.399555
  C       4.310164      2.399564      2.587941
  C       4.173553      1.445373      1.587063
  C       2.263580     -1.493346     -1.420350
  C      -1.412711     -2.860161      0.684561
  O      -0.805468     -4.000480      0.316360
  C      -0.731772     -5.063066      1.246048
  C      -2.030725     -2.682663      1.920620
  H      -4.683825      0.066475      3.138534
  H      -3.132420      0.670395      3.810936
  H      -4.226543     -0.323301      4.825349
  H      -3.127726      0.544957      1.531693
  H      -2.025837      2.107306      0.244733
  H      -2.306510      2.243343     -1.520552
  H      -3.593307      1.580004     -0.462633
  H      -3.274175     -2.615940     -2.082529
  H      -4.912735     -1.999498     -3.861380
  H      -1.872999      0.287950     -5.880717
  H      -0.218977     -0.343374     -4.083097
  H       0.443745      0.425249     -0.139239
  H       1.127554      1.228926     -1.593297
  H       3.408503      3.510878     -1.022854
  H       3.652035      5.214536      0.790134
  H       3.955462      4.426731      4.363019
  H       5.411751      4.996080      3.528724
  H       3.841046      5.736995      3.152267
  H       4.569932      2.084226      3.600724
  H       4.327518      0.384866      1.794589
  H       3.009440     -1.593249     -2.228058
  H       2.328853     -2.385346     -0.775913
  H      -0.167142     -4.762322      2.141841
  H      -0.206944     -5.879029      0.738984
  H      -1.736749     -5.399949      1.540847
  H      -2.059824     -3.464032      2.676726
60
Coordinates from ORCA-job file E -2653.519241827728
  C      -3.861508     -0.178808      3.804640
  O      -3.232223     -1.385063      3.424226
  C      -2.653198     -1.462977      2.214023
  C      -2.649897     -0.404655      1.297766
  C      -2.008619     -0.586346      0.065131
  O      -1.941305      0.367759     -0.876791
  C      -2.499008      1.640660     -0.623546
  C      -1.401450     -1.811636     -0.252752
  S      -0.430291     -2.010541     -1.751266
  C      -1.653888     -1.494559     -2.985526
  C      -2.958049     -1.980357     -2.903572
  C      -3.881759     -1.633787     -3.886352
  C      -3.478138     -0.812291     -4.939816
  Cl     -4.633139     -0.369581     -6.165179
  C      -2.170956     -0.339207     -5.030624
  C      -1.250137     -0.689243     -4.043317
  C       0.893739     -0.992632     -1.831187
  C       1.099875      0.281864     -1.024167
  N       2.446639     -0.233836     -0.634451
  S       3.787546      0.668773     -1.005051
  O       4.923471     -0.238731     -0.878387
  O       3.619123      1.395540     -2.263087
  C       3.852334      1.869820      0.293587
  C       3.652698      3.212735     -0.010484
  C       3.789886      4.158525      1.004856
  C       4.130430      3.774139      2.306562
  C       4.329167      4.801442      3.387718
  C       4.316369      2.409100      2.581784
  C       4.185903      1.451961      1.582984
  C       2.277045     -1.494033     -1.425234
  C      -1.417788     -2.865536      0.683800
  O      -0.818837     -4.009250      0.312744
  C      -0.758509     -5.076481      1.238024
  C      -2.045002     -2.691288      1.915816
  H      -4.694829      0.063601      3.127356
  H      -3.146136      0.658091      3.813691
  H      -4.251452     -0.336035      4.815612
  H      -3.124098      0.543191      1.534599
  H      -2.027490      2.110972      0.252842
  H      -2.296158      2.243922     -1.514566
  H      -3.585610      1.571080     -0.465525
  H      -3.262898     -2.615540     -2.069019
  H      -4.909525     -1.994567     -3.838689
  H      -1.879253      0.298102     -5.865958
  H      -0.216769     -0.337617     -4.077434
  H       0.463650      0.426278     -0.134289
  H       1.144804      1.228873     -1.589949
  H       3.405643      3.506515     -1.031281
  H       3.637927      5.215902      0.778400
  H       3.952437      4.437104      4.352912
  H       5.401914      5.016282      3.513076
  H       3.824155      5.743744      3.139677
  H       4.579313      2.097979      3.595024
  H       4.347946      0.392952      1.791973
  H       3.019660     -1.591754     -2.236263
  H       2.344238     -2.388216     -0.784073
  H      -0.200322     -4.782580      2.140017
  H      -0.233567     -5.892843      0.731712
  H      -1.767883     -5.409716      1.522152
  H      -2.086219     -3.477203      2.666627
60
Coordinates from ORCA-job file E -2653.519360613417
  C      -3.937461     -0.194249      3.770382
  O      -3.329310     -1.410913      3.389216
  C      -2.702288     -1.481087      2.202235
  C      -2.633470     -0.405887      1.308201
  C      -1.947331     -0.581655      0.099145
  O      -1.832634      0.382009     -0.828290
  C      -2.423324      1.644754     -0.599065
  C      -1.350298     -1.813637     -0.213633
  S      -0.373049     -2.011944     -1.708929
  C      -1.617362     -1.505755     -2.932761
  C      -2.915846     -2.004801     -2.836387
  C      -3.856804     -1.660532     -3.803536
  C      -3.475729     -0.827870     -4.856554
  Cl     -4.652467     -0.385146     -6.061143
  C      -2.173833     -0.343387     -4.963329
  C      -1.236073     -0.691510     -3.991489
  C       0.938188     -0.980679     -1.799930
  C       1.162466      0.283893     -0.984507
  N       2.532150     -0.219412     -0.662743
  S       3.839436      0.719946     -1.065806
  O       5.006392     -0.151107     -0.965904
  O       3.623360      1.443736     -2.318984
  C       3.889330      1.912192      0.241388
  C       3.661244      3.254045     -0.046126
  C       3.777115      4.188824      0.982105
  C       4.123237      3.794078      2.279644
  C       4.295719      4.810963      3.375152
  C       4.338663      2.430155      2.537467
  C       4.230218      1.484192      1.525732
  C       2.348521     -1.464747     -1.473895
  C      -1.441431     -2.887542      0.695324
  O      -0.870355     -4.044209      0.321551
  C      -0.919522     -5.144142      1.208926
  C      -2.118354     -2.720404      1.902608
  H      -4.729542      0.093451      3.062406
  H      -3.195689      0.616767      3.836050
  H      -4.378631     -0.362682      4.758289
  H      -3.097348      0.547808      1.542600
  H      -1.990842      2.125306      0.291771
  H      -2.201111      2.249631     -1.484207
  H      -3.513078      1.553712     -0.477412
  H      -3.203802     -2.649278     -2.002880
  H      -4.880584     -2.030789     -3.743581
  H      -1.899869      0.301245     -5.799043
  H      -0.206545     -0.329621     -4.036992
  H       0.562843      0.404184     -0.066258
  H       1.170184      1.241099     -1.535353
  H       3.406189      3.554618     -1.063004
  H       3.601438      5.245464      0.770068
  H       3.924609      4.425729      4.334319
  H       5.363025      5.048911      3.504796
  H       3.769081      5.743897      3.137106
  H       4.604661      2.111430      3.547546
  H       4.411590      0.425603      1.720401
  H       3.051671     -1.527816     -2.322847
  H       2.464648     -2.371633     -0.858587
  H      -0.415963     -4.907092      2.157979
  H      -0.395398     -5.965548      0.710040
  H      -1.960019     -5.441211      1.410921
  H      -2.220611     -3.521353      2.631301
60
Coordinates from ORCA-job file E -2653.519358268373
  C      -3.925184     -0.187024      3.777297
  O      -3.317608     -1.404002      3.395967
  C      -2.698305     -1.476620      2.205301
  C      -2.640768     -0.405065      1.306027
  C      -1.962979     -0.583249      0.092666
  O      -1.856412      0.377963     -0.838207
  C      -2.430288      1.646977     -0.600703
  C      -1.363280     -1.814352     -0.218806
  S      -0.386545     -2.013736     -1.713211
  C      -1.626195     -1.511025     -2.943373
  C      -2.924510     -2.011071     -2.854889
  C      -3.858226     -1.671765     -3.830977
  C      -3.469742     -0.843248     -4.884555
  Cl     -4.637066     -0.406937     -6.100662
  C      -2.167633     -0.357431     -4.982987
  C      -1.237337     -0.700636     -4.002395
  C       0.921536     -0.979374     -1.797263
  C       1.137918      0.284228     -0.979079
  N       2.510501     -0.211833     -0.660268
  S       3.812895      0.729727     -1.068739
  O       4.977060     -0.147208     -0.987163
  O       3.584666      1.462594     -2.314300
  C       3.879036      1.915051      0.244535
  C       3.667058      3.260650     -0.038023
  C       3.794321      4.190782      0.993130
  C       4.135450      3.788128      2.289430
  C       4.318124      4.799321      3.388647
  C       4.335259      2.420812      2.542358
  C       4.215404      1.479336      1.527614
  C       2.332134     -1.458928     -1.469452
  C      -1.436706     -2.882001      0.698648
  O      -0.850327     -4.032791      0.330957
  C      -0.892169     -5.131786      1.219758
  C      -2.106747     -2.713226      1.909257
  H      -4.720575      0.098450      3.072166
  H      -3.183448      0.624309      3.838441
  H      -4.361790     -0.353767      4.767504
  H      -3.106282      0.547985      1.539697
  H      -1.985407      2.119373      0.288399
  H      -2.207317      2.251991     -1.485613
  H      -3.520175      1.569212     -0.471577
  H      -3.217938     -2.652817     -2.021127
  H      -4.881888     -2.043240     -3.777486
  H      -1.887523      0.283951     -5.819181
  H      -0.207681     -0.338209     -4.041441
  H       0.538626      0.396590     -0.059423
  H       1.139127      1.243615     -1.526005
  H       3.413896      3.567672     -1.053421
  H       3.631138      5.250048      0.784114
  H       3.936472      4.417088      4.344971
  H       5.388135      5.020830      3.524856
  H       3.806962      5.740955      3.150909
  H       4.597895      2.095455      3.551227
  H       4.383473      0.418089      1.719787
  H       3.035715     -1.519837     -2.318024
  H       2.452199     -2.364456     -0.852843
  H      -0.386998     -4.891868      2.167374
  H      -0.365493     -5.951275      0.720416
  H      -1.930486     -5.433106      1.425965
  H      -2.193971     -3.509300      2.645272
60
Coordinates from ORCA-job file E -2653.518954051898
  C      -3.839188     -0.156691      3.814503
  O      -3.212019     -1.364888      3.436009
  C      -2.645082     -1.449633      2.220954
  C      -2.662762     -0.400840      1.293847
  C      -2.036780     -0.590117      0.054647
  O      -1.985194      0.357082     -0.894941
  C      -2.503730      1.644089     -0.629218
  C      -1.424820     -1.814621     -0.258370
  S      -0.455028     -2.016828     -1.754771
  C      -1.670369     -1.511033     -3.002520
  C      -2.973409     -2.000287     -2.937655
  C      -3.881546     -1.665296     -3.939276
  C      -3.462591     -0.852472     -4.993487
  Cl     -4.597005     -0.424704     -6.243306
  C      -2.155560     -0.375564     -5.066432
  C      -1.251024     -0.713916     -4.060565
  C       0.858625     -0.988421     -1.820633
  C       1.047641      0.282246     -1.005867
  N       2.406042     -0.213323     -0.634871
  S       3.728888      0.701992     -1.024545
  O       4.864114     -0.212909     -0.950126
  O       3.520697      1.452136     -2.262386
  C       3.830805      1.882134      0.292128
  C       3.664139      3.233470      0.005466
  C       3.824584      4.163800      1.031844
  C       4.155131      3.756797      2.328955
  C       4.372302      4.765919      3.423894
  C       4.309960      2.384257      2.586665
  C       4.156050      1.442220      1.576681
  C       2.247603     -1.475382     -1.423924
  C      -1.406223     -2.852437      0.695052
  O      -0.775480     -3.982702      0.336904
  C      -0.711913     -5.050223      1.261464
  C      -2.021275     -2.672301      1.931826
  H      -4.675435      0.083493      3.140152
  H      -3.122062      0.678591      3.818391
  H      -4.224331     -0.309539      4.827989
  H      -3.140124      0.546239      1.527144
  H      -2.005638      2.097612      0.241317
  H      -2.297769      2.244717     -1.521414
  H      -3.589376      1.605371     -0.455436
  H      -3.289757     -2.629482     -2.102730
  H      -4.908564     -2.029528     -3.905360
  H      -1.850910      0.254562     -5.902641
  H      -0.217919     -0.359953     -4.080506
  H       0.417821      0.403291     -0.107483
  H       1.069928      1.236577     -1.560554
  H       3.419277      3.545552     -1.010365
  H       3.697045      5.226922      0.817308
  H       3.970649      4.403709      4.380040
  H       5.449257      4.945006      3.567651
  H       3.901413      5.726904      3.179983
  H       4.565050      2.054190      3.595991
  H       4.289990      0.377298      1.775386
  H       2.984899     -1.561305     -2.240808
  H       2.333272     -2.368674     -0.783665
  H      -0.155120     -4.756663      2.164725
  H      -0.183514     -5.864057      0.754713
  H      -1.719537     -5.386469      1.547315
  H      -2.034126     -3.445914      2.696415
60
Coordinates from ORCA-job file E -2653.519237037875
  C      -3.870736     -0.173271      3.802066
  O      -3.250483     -1.384077      3.420980
  C      -2.664731     -1.462690      2.214137
  C      -2.652898     -0.403289      1.299005
  C      -2.006384     -0.586046      0.069368
  O      -1.933015      0.368409     -0.871661
  C      -2.480639      1.645550     -0.616690
  C      -1.399971     -1.812870     -0.245302
  S      -0.427300     -2.013207     -1.741472
  C      -1.652372     -1.505677     -2.980160
  C      -2.953956     -1.998355     -2.903664
  C      -3.874277     -1.659885     -3.892681
  C      -3.469302     -0.839753     -4.946658
  Cl     -4.619548     -0.406938     -6.180117
  C      -2.164081     -0.359975     -5.031989
  C      -1.247055     -0.702105     -4.038599
  C       0.888029     -0.986431     -1.816892
  C       1.090262      0.283781     -1.004102
  N       2.449178     -0.218417     -0.641662
  S       3.772200      0.700060     -1.031083
  O       4.916112     -0.201932     -0.937925
  O       3.570719      1.437569     -2.277976
  C       3.852635      1.888745      0.278723
  C       3.663641      3.236002     -0.012688
  C       3.807121      4.171447      1.011477
  C       4.142986      3.772946      2.310115
  C       4.344252      4.788672      3.401888
  C       4.319717      2.404080      2.572396
  C       4.182852      1.457112      1.564723
  C       2.281576     -1.476036     -1.436462
  C      -1.420527     -2.865683      0.691821
  O      -0.812113     -4.006071      0.326791
  C      -0.782047     -5.084625      1.240503
  C      -2.055784     -2.691464      1.919688
  H      -4.694272      0.082693      3.117988
  H      -3.145364      0.654615      3.824834
  H      -4.272356     -0.332026      4.808234
  H      -3.125237      0.545942      1.534091
  H      -2.007040      2.108872      0.262294
  H      -2.270006      2.249495     -1.505453
  H      -3.568248      1.585446     -0.461813
  H      -3.259776     -2.633385     -2.069244
  H      -4.900168     -2.026391     -3.849239
  H      -1.870798      0.275646     -5.868086
  H      -0.215156     -0.345377     -4.068226
  H       0.466861      0.410248     -0.102320
  H       1.113851      1.237069     -1.560764
  H       3.416236      3.540724     -1.030157
  H       3.662286      5.231803      0.794421
  H       3.954098      4.420852      4.360532
  H       5.418171      4.989740      3.539269
  H       3.852674      5.738999      3.157251
  H       4.578406      2.081408      3.583167
  H       4.334369      0.394900      1.765240
  H       3.011052     -1.559076     -2.260808
  H       2.371196     -2.372951     -0.802021
  H      -0.240540     -4.808253      2.158018
  H      -0.254761     -5.900359      0.735643
  H      -1.800290     -5.410185      1.500938
  H      -2.099245     -3.476026      2.671815
60
Coordinates from ORCA-job file E -2653.519282082345
  C      -3.875387     -0.176514      3.797398
  O      -3.254656     -1.387135      3.416678
  C      -2.665483     -1.464736      2.211312
  C      -2.648420     -0.403680      1.298220
  C      -1.998179     -0.585552      0.070400
  O      -1.921723      0.369579     -0.869717
  C      -2.479557      1.643109     -0.619240
  C      -1.392402     -1.812623     -0.244435
  S      -0.419566     -2.012196     -1.741382
  C      -1.648055     -1.503757     -2.976165
  C      -2.949890     -1.995302     -2.893062
  C      -3.875874     -1.653647     -3.875547
  C      -3.476498     -0.831371     -4.929992
  Cl     -4.634190     -0.393635     -6.154670
  C      -2.171172     -0.353275     -5.022413
  C      -1.248352     -0.698528     -4.035407
  C       0.897519     -0.986806     -1.821701
  C       1.103653      0.285082     -1.011778
  N       2.459560     -0.221685     -0.643599
  S       3.787622      0.693992     -1.025959
  O       4.931823     -0.205954     -0.919020
  O       3.597638      1.427057     -2.277352
  C       3.857527      1.886710      0.280352
  C       3.661121      3.232122     -0.014469
  C       3.799053      4.170486      1.007722
  C       4.136936      3.776424      2.307274
  C       4.334288      4.795746      3.396336
  C       4.320435      2.409171      2.572976
  C       4.189122      1.459369      1.567331
  C       2.290178     -1.479019     -1.438726
  C      -1.422239     -2.868822      0.688795
  O      -0.823290     -4.013296      0.320659
  C      -0.794468     -5.091005      1.235444
  C      -2.060883     -2.695195      1.915157
  H      -4.697799      0.079954      3.112148
  H      -3.150201      0.651526      3.821637
  H      -4.278768     -0.335831      4.802781
  H      -3.120260      0.545801      1.533373
  H      -2.011825      2.112095      0.259884
  H      -2.271006      2.246499     -1.508832
  H      -3.567050      1.574858     -0.466912
  H      -3.251637     -2.631455     -2.058058
  H      -4.902016     -2.018818     -3.826551
  H      -1.882457      0.283921     -5.858880
  H      -0.216444     -0.342490     -4.070478
  H       0.478141      0.418110     -0.112548
  H       1.132970      1.236045     -1.572113
  H       3.413599      3.533133     -1.033038
  H       3.648812      5.229619      0.788460
  H       3.949291      4.427390      4.356789
  H       5.407286      5.004236      3.529792
  H       3.835603      5.742106      3.150839
  H       4.580778      2.090306      3.584507
  H       4.347138      0.398427      1.769501
  H       3.021284     -1.564740     -2.261455
  H       2.375514     -2.376041     -0.803875
  H      -0.253039     -4.813867      2.152691
  H      -0.267974     -5.907801      0.731487
  H      -1.813313     -5.415460      1.495227
  H      -2.112818     -3.482635      2.663704
60
Coordinates from ORCA-job file E -2653.519326391531
  C      -3.905802     -0.184526      3.779822
  O      -3.290426     -1.398119      3.400228
  C      -2.681364     -1.472330      2.204284
  C      -2.637115     -0.404266      1.300298
  C      -1.968169     -0.583723      0.082207
  O      -1.873024      0.374831     -0.852678
  C      -2.452256      1.641275     -0.615366
  C      -1.366629     -1.813437     -0.230881
  S      -0.391631     -2.012075     -1.727719
  C      -1.631028     -1.505821     -2.954265
  C      -2.931481     -1.999636     -2.858056
  C      -3.869992     -1.654350     -3.827142
  C      -3.484639     -0.825958     -4.882003
  Cl     -4.658444     -0.381344     -6.088697
  C      -2.180751     -0.346928     -4.988657
  C      -1.245361     -0.695807     -4.014786
  C       0.923183     -0.983663     -1.818168
  C       1.139828      0.287273     -1.009273
  N       2.499865     -0.220601     -0.656601
  S       3.822779      0.704306     -1.040537
  O       4.977762     -0.180786     -0.926362
  O       3.630884      1.431872     -2.295161
  C       3.874732      1.898146      0.264997
  C       3.659785      3.241080     -0.027703
  C       3.784078      4.178753      0.996842
  C       4.126368      3.785940      2.295846
  C       4.310332      4.805495      3.386969
  C       4.327838      2.420880      2.559172
  C       4.210522      1.471950      1.551206
  C       2.324023     -1.472895     -1.458587
  C      -1.431584     -2.879731      0.689208
  O      -0.853900     -4.033650      0.316561
  C      -0.860663     -5.119950      1.221742
  C      -2.089863     -2.708432      1.905976
  H      -4.713764      0.086012      3.083010
  H      -3.172885      0.635937      3.823557
  H      -4.327834     -0.347707      4.776931
  H      -3.104957      0.547504      1.534433
  H      -2.002965      2.120234      0.267992
  H      -2.240060      2.243882     -1.504537
  H      -3.540536      1.557458     -0.476956
  H      -3.222921     -2.639914     -2.022581
  H      -4.895255     -2.020456     -3.767060
  H      -1.903254      0.294435     -5.825711
  H      -0.214608     -0.337686     -4.060418
  H       0.523885      0.420624     -0.103717
  H       1.163521      1.238540     -1.569565
  H       3.409421      3.540398     -1.046115
  H       3.619378      5.236253      0.780290
  H       3.933411      4.429015      4.347370
  H       5.380390      5.030367      3.517251
  H       3.796035      5.744152      3.144416
  H       4.591341      2.103567      3.570345
  H       4.382980      0.412639      1.750001
  H       3.044080     -1.550388     -2.292007
  H       2.420691     -2.374109     -0.831546
  H      -0.335361     -4.859256      2.152803
  H      -0.336313     -5.940303      0.721365
  H      -1.890074     -5.431003      1.456136
  H      -2.172206     -3.503968      2.643096
60
Coordinates from ORCA-job file E -2653.519318443789
  C      -3.888290     -0.177986      3.789963
  O      -3.270546     -1.390323      3.409923
  C      -2.672928     -1.466942      2.208555
  C      -2.644237     -0.403148      1.298913
  C      -1.985977     -0.584359      0.075291
  O      -1.901350      0.372096     -0.862774
  C      -2.466291      1.643488     -0.617267
  C      -1.382081     -1.812750     -0.238336
  S      -0.408251     -2.012433     -1.734917
  C      -1.641387     -1.506257     -2.966960
  C      -2.942199     -2.000004     -2.879403
  C      -3.872808     -1.658301     -3.857457
  C      -3.479069     -0.833661     -4.912165
  Cl     -4.642658     -0.395008     -6.130911
  C      -2.174711     -0.353856     -5.009456
  C      -1.247286     -0.699204     -4.026806
  C       0.906753     -0.984642     -1.819134
  C       1.116681      0.286405     -1.008983
  N       2.475780     -0.219089     -0.650615
  S       3.799459      0.702439     -1.035674
  O       4.949020     -0.190890     -0.930567
  O       3.604461      1.435097     -2.286661
  C       3.864255      1.893510      0.272288
  C       3.661615      3.238643     -0.019388
  C       3.794865      4.174962      1.005314
  C       4.133997      3.779003      2.304048
  C       4.326221      4.796412      3.395815
  C       4.323669      2.411997      2.566473
  C       4.197205      1.464288      1.558313
  C       2.304051     -1.474043     -1.449013
  C      -1.426290     -2.872763      0.690028
  O      -0.834486     -4.020734      0.321188
  C      -0.822364     -5.102640      1.231495
  C      -2.073355     -2.699750      1.912259
  H      -4.704058      0.085131      3.099376
  H      -3.159065      0.646205      3.823054
  H      -4.300204     -0.338723      4.791670
  H      -3.114188      0.547471      1.533340
  H      -2.005609      2.115519      0.263946
  H      -2.255173      2.246645     -1.506381
  H      -3.554312      1.570423     -0.471002
  H      -3.239796     -2.637892     -2.044230
  H      -4.898236     -2.024976     -3.804664
  H      -1.890420      0.284876     -5.846265
  H      -0.216127     -0.341327     -4.065465
  H       0.496732      0.417478     -0.105680
  H       1.141033      1.238187     -1.568285
  H       3.412872      3.540855     -1.037308
  H       3.639626      5.233936      0.788860
  H       3.942933      4.423712      4.355253
  H       5.398205      5.009833      3.529556
  H       3.822768      5.740799      3.152550
  H       4.584737      2.091799      3.577393
  H       4.359747      0.403482      1.757553
  H       3.028878     -1.554493     -2.277865
  H       2.396966     -2.373115     -0.818237
  H      -0.288675     -4.833328      2.155460
  H      -0.296553     -5.920949      0.729289
  H      -1.846186     -5.421025      1.479404
  H      -2.137360     -3.490081      2.656797
60
Coordinates from ORCA-job file E -2653.519297348997
  C      -3.880620     -0.174872      3.793661
  O      -3.261541     -1.386601      3.413756
  C      -2.668680     -1.464407      2.210178
  C      -2.646583     -0.402632      1.298003
  C      -1.993032     -0.584925      0.072025
  O      -1.913091      0.370338     -0.867650
  C      -2.471619      1.643935     -0.618889
  C      -1.388188     -1.812823     -0.241693
  S      -0.414888     -2.012921     -1.738272
  C      -1.645600     -1.506758     -2.972353
  C      -2.946755     -1.999846     -2.887629
  C      -3.874523     -1.659065     -3.868737
  C      -3.477561     -0.836044     -4.923506
  Cl     -4.637477     -0.398859     -6.146284
  C      -2.172820     -0.356667     -5.017745
  C      -1.248266     -0.701082     -4.032095
  C       0.900290     -0.985362     -1.820487
  C       1.107463      0.286234     -1.010524
  N       2.465861     -0.218390     -0.648806
  S       3.790393      0.701488     -1.033267
  O       4.937626     -0.195178     -0.930858
  O       3.595350      1.436344     -2.282876
  C       3.859608      1.891356      0.275709
  C       3.661601      3.237301     -0.015513
  C       3.798253      4.173022      1.009302
  C       4.136274      3.775798      2.307882
  C       4.331824      4.792297      3.399922
  C       4.321457      2.408062      2.569895
  C       4.191499      1.460910      1.561616
  C       2.296019     -1.474762     -1.445240
  C      -1.423856     -2.870034      0.690179
  O      -0.827316     -4.015971      0.322650
  C      -0.806064     -5.095133      1.235984
  C      -2.066027     -2.695951      1.914725
  H      -4.699851      0.084606      3.105779
  H      -3.153263      0.651133      3.821886
  H      -4.288107     -0.334354      4.797375
  H      -3.117399      0.547551      1.532406
  H      -2.005483      2.113291      0.260885
  H      -2.261406      2.246909     -1.508363
  H      -3.559387      1.575611     -0.468586
  H      -3.246752     -2.636563     -2.052415
  H      -4.900177     -2.025413     -3.818303
  H      -1.885916      0.280891     -5.854563
  H      -0.216832     -0.343752     -4.068464
  H       0.485449      0.417328     -0.108593
  H       1.132621      1.237753     -1.570185
  H       3.413462      3.540642     -1.033238
  H       3.646591      5.232547      0.792959
  H       3.945983      4.421111      4.358953
  H       5.404554      5.001058      3.535049
  H       3.832780      5.738971      3.156403
  H       4.581772      2.086736      3.580661
  H       4.350416      0.399559      1.760897
  H       3.023189     -1.556935     -2.271821
  H       2.386934     -2.372677     -0.812493
  H      -0.268096     -4.821176      2.156166
  H      -0.279915     -5.912875      0.733205
  H      -1.827172     -5.416631      1.490708
  H      -2.123003     -3.484125      2.662130
60
Coordinates from ORCA-job file E -2653.519300058676
  C      -3.881619     -0.174818      3.792934
  O      -3.262777     -1.386702      3.413146
  C      -2.669279     -1.464505      2.209869
  C      -2.646197     -0.402546      1.297930
  C      -1.991977     -0.584860      0.072313
  O      -1.911410      0.370424     -0.867287
  C      -2.470381      1.643915     -0.618974
  C      -1.387308     -1.812889     -0.241254
  S      -0.413870     -2.012979     -1.737787
  C      -1.645054     -1.507115     -2.971601
  C      -2.946116     -2.000387     -2.886334
  C      -3.874404     -1.659625     -3.866951
  C      -3.478060     -0.836420     -4.921804
  Cl     -4.638620     -0.399215     -6.143961
  C      -2.173412     -0.356902     -5.016632
  C      -1.248336     -0.701306     -4.031466
  C       0.901116     -0.985179     -1.820525
  C       1.108587      0.286625     -1.010944
  N       2.467157     -0.217862     -0.649692
  S       3.791506      0.702383     -1.034062
  O       4.939094     -0.193823     -0.931583
  O       3.596416      1.437299     -2.283644
  C       3.860194      1.892014      0.275143
  C       3.661436      3.237936     -0.015653
  C       3.797687      4.173393      1.009462
  C       4.136038      3.775912      2.307885
  C       4.331196      4.792147      3.400241
  C       4.321954      2.408196      2.569461
  C       4.192402      1.461315      1.560886
  C       2.297216     -1.474230     -1.446091
  C      -1.424364     -2.870441      0.690175
  O      -0.828689     -4.016802      0.322540
  C      -0.808381     -5.096081      1.235770
  C      -2.067183     -2.696311      1.914397
  H      -4.700423      0.085067      3.104702
  H      -3.153979      0.650920      3.821675
  H      -4.289666     -0.334315      4.796420
  H      -3.116831      0.547754      1.532235
  H      -2.004733      2.113526      0.260923
  H      -2.259931      2.246799     -1.508451
  H      -3.558194      1.575317     -0.469127
  H      -3.245663     -2.637236     -2.051061
  H      -4.899987     -2.026113     -3.816055
  H      -1.886990      0.280763     -5.853532
  H      -0.216975     -0.343813     -4.068287
  H       0.486917      0.417997     -0.108822
  H       1.133480      1.237976     -1.570914
  H       3.413055      3.541442     -1.033269
  H       3.645439      5.232909      0.793491
  H       3.945449      4.420537      4.359145
  H       5.403855      5.001219      3.535440
  H       3.831829      5.738715      3.156982
  H       4.582516      2.086695      3.580106
  H       4.351888      0.399974      1.759767
  H       3.023950     -1.556180     -2.273086
  H       2.388685     -2.372158     -0.813449
  H      -0.270945     -4.822399      2.156330
  H      -0.282190     -5.913945      0.733233
  H      -1.829781     -5.417274      1.489753
  H      -2.125335     -3.484734      2.661444
