60
Coordinates from ORCA-job file
  C   -3.88161923948404     -0.17481829373088      3.79293441468980
  O   -3.26277694191335     -1.38670206052819      3.41314618607412
  C   -2.66927932326888     -1.46450485359491      2.20986927756936
  C   -2.64619715229885     -0.40254641281150      1.29793028577474
  C   -1.99197743055783     -0.58485985800177      0.07231297452602
  O   -1.91140950475158      0.37042354411579     -0.86728670923657
  C   -2.47038080159470      1.64391487229131     -0.61897406472686
  C   -1.38730834206401     -1.81288866653048     -0.24125432511722
  S   -0.41386991670752     -2.01297876620030     -1.73778712033197
  C   -1.64505394618903     -1.50711454697649     -2.97160139319739
  C   -2.94611594354643     -2.00038683651012     -2.88633354010160
  C   -3.87440394153684     -1.65962511047633     -3.86695074285528
  C   -3.47805974678526     -0.83642012692877     -4.92180432144547
  Cl  -4.63861955297089     -0.39921473525694     -6.14396136816903
  C   -2.17341211156902     -0.35690231960574     -5.01663152641241
  C   -1.24833569212319     -0.70130621953013     -4.03146574074289
  C   0.90111588236840     -0.98517928883396     -1.82052543823975
  C   1.10858666926036      0.28662469270387     -1.01094442106132
  N   2.46715703652213     -0.21786235584099     -0.64969152743463
  S   3.79150565665687      0.70238304173899     -1.03406207176642
  O   4.93909364466437     -0.19382327470894     -0.93158278069193
  O   3.59641591551152      1.43729887294723     -2.28364446469466
  C   3.86019353293644      1.89201425463410      0.27514347618064
  C   3.66143616519662      3.23793604458006     -0.01565293439668
  C   3.79768693610837      4.17339313784707      1.00946150706297
  C   4.13603795321047      3.77591172678677      2.30788548244577
  C   4.33119610607141      4.79214696786923      3.40024136160116
  C   4.32195440639400      2.40819584453081      2.56946131451920
  C   4.19240187037882      1.46131484212712      1.56088648629050
  C   2.29721576580683     -1.47423016335490     -1.44609145523608
  C   -1.42436397982314     -2.87044059087696      0.69017504265610
  O   -0.82868919283341     -4.01680158147960      0.32253988912165
  C   -0.80838148101397     -5.09608132215007      1.23576957469767
  C   -2.06718327513863     -2.69631083799403      1.91439670208529
  H   -4.70042313959831      0.08506729373956      3.10470169322194
  H   -3.15397867839646      0.65092029117713      3.82167539921335
  H   -4.28966623044554     -0.33431483037994      4.79641995229921
  H   -3.11683077410873      0.54775422555682      1.53223470378810
  H   -2.00473284557228      2.11352600388534      0.26092312465480
  H   -2.25993096935798      2.24679874888467     -1.50845052149797
  H   -3.55819441361444      1.57531731730000     -0.46912709394812
  H   -3.24566277745031     -2.63723630883842     -2.05106070139904
  H   -4.89998688520551     -2.02611310498135     -3.81605498029757
  H   -1.88698988551424      0.28076275794231     -5.85353223046990
  H   -0.21697458507204     -0.34381321302284     -4.06828734261149
  H   0.48691686536841      0.41799690693611     -0.10882243458586
  H   1.13348032099010      1.23797568271330     -1.57091441425387
  H   3.41305484936680      3.54144220091128     -1.03326929654723
  H   3.64543894585564      5.23290862738992      0.79349097379075
  H   3.94544915010127      4.42053667909316      4.35914484218867
  H   5.40385482573191      5.00121912111994      3.53543989552278
  H   3.83182887319101      5.73871457794581      3.15698231187424
  H   4.58251582375122      2.08669496378696      3.58010575378084
  H   4.35188832341527      0.39997383235231      1.75976665910229
  H   3.02394959448321     -1.55618047438340     -2.27308589153871
  H   2.38868499396034     -2.37215778096945     -0.81344864707731
  H   -0.27094540714413     -4.82239938155397      2.15633028077766
  H   -0.28218992394822     -5.91394535152237      0.73323346876592
  H   -1.82978107546871     -5.41727399222787      1.48975286989850
  H   -2.12533500023434     -3.48473441310540      2.66144359591121
