43
Coordinates from ORCA-job file E -1854.942789268670
  C       3.455700      0.597100     -4.114300
  O       3.613900      0.183600     -2.760900
  C       2.585700      0.178400     -1.805800
  C       2.888400     -0.254600     -0.512800
  C       1.901100     -0.280900      0.488600
  O       2.182500     -0.711400      1.796000
  C       3.458200     -1.156900      2.244100
  C       0.595500      0.135700      0.180200
  S      -0.635500      0.107300      1.443100
  C      -1.828400     -1.174300      1.360700
  C      -1.662700     -2.327200      2.137500
  C      -2.607000     -3.356700      2.074300
  C      -3.720200     -3.236100      1.234700
  Cl     -4.904400     -4.527500      1.155300
  C      -3.887500     -2.083300      0.459000
  C      -2.943600     -1.053500      0.521700
  C      -1.073700      1.594200      2.346400
  C      -1.948300      2.517900      1.532100
  O      -0.935200      3.484300      1.402400
  C      -0.056700      2.698800      2.169200
  C       0.274000      0.568400     -1.118000
  O      -1.043800      0.964700     -1.393300
  C      -1.507400      1.424300     -2.658200
  C       1.275700      0.589600     -2.106300
  H       3.136700      1.660100     -4.154200
  H       4.427700      0.498300     -4.639400
  H       2.708800     -0.046500     -4.625500
  H       3.900900     -0.568800     -0.298900
  H       4.206400     -0.343600      2.135500
  H       3.775600     -2.050100      1.665700
  H       3.388700     -1.434500      3.315700
  H      -0.802900     -2.428600      2.787900
  H      -2.472600     -4.246200      2.676500
  H      -4.747400     -1.984200     -0.191100
  H      -3.085600     -0.165600     -0.079300
  H      -2.797800      2.912900      2.130200
  H      -2.262400      2.125800      0.542500
  H       0.851900      2.428200      1.590000
  H       0.179600      3.197900      3.133900
  H      -0.957900      2.342200     -2.955700
  H      -1.375600      0.631500     -3.424300
  H      -2.587000      1.666600     -2.580400
  H       1.036700      0.922500     -3.105100
43
Coordinates from ORCA-job file E -1854.970181885004
  C       3.309366      0.564925     -4.030315
  O       3.557445      0.149961     -2.707440
  C       2.562623      0.152301     -1.780031
  C       2.889038     -0.270700     -0.492731
  C       1.910650     -0.289120      0.504092
  O       2.188411     -0.692612      1.771431
  C       3.486050     -1.110272      2.125058
  C       0.600755      0.118510      0.212092
  S      -0.620472      0.115910      1.498162
  C      -1.818413     -1.159412      1.356812
  C      -1.674299     -2.310020      2.135133
  C      -2.612584     -3.335634      2.041860
  C      -3.693362     -3.207371      1.168954
  Cl     -4.865754     -4.490353      1.054502
  C      -3.842624     -2.060232      0.388450
  C      -2.903208     -1.034625      0.482131
  C      -1.122591      1.602396      2.356582
  C      -1.958877      2.541681      1.485471
  O      -0.916972      3.508221      1.416223
  C      -0.077821      2.713707      2.240643
  C       0.280739      0.537039     -1.085689
  O      -1.004146      0.914658     -1.326849
  C      -1.402393      1.360981     -2.602420
  C       1.258382      0.558403     -2.084582
  H       2.975644      1.617452     -4.052499
  H       4.251383      0.478213     -4.588101
  H       2.550491     -0.080999     -4.506413
  H       3.910713     -0.580639     -0.284600
  H       4.212895     -0.292119      1.978660
  H       3.786653     -1.991950      1.531831
  H       3.467644     -1.384808      3.188213
  H      -0.829414     -2.406898      2.814686
  H      -2.501584     -4.232489      2.648053
  H      -4.688228     -1.965719     -0.290192
  H      -3.019950     -0.138786     -0.124180
  H      -2.840186      2.944828      2.022583
  H      -2.231395      2.163252      0.482001
  H       0.869058      2.447665      1.728860
  H       0.114289      3.216026      3.208523
  H      -0.840877      2.267009     -2.888701
  H      -1.253350      0.568310     -3.356676
  H      -2.471428      1.607230     -2.548933
  H       1.007799      0.885879     -3.090955
43
Coordinates from ORCA-job file E -1854.980838791945
  C       3.229322      0.533543     -4.008234
  O       3.516461      0.125483     -2.696646
  C       2.539205      0.133068     -1.778112
  C       2.898680     -0.277849     -0.492734
  C       1.938787     -0.295149      0.521076
  O       2.221520     -0.675971      1.772907
  C       3.528789     -1.077028      2.088592
  C       0.616045      0.098816      0.249098
  S      -0.575375      0.115197      1.575122
  C      -1.788243     -1.141897      1.359092
  C      -1.682985     -2.296739      2.134999
  C      -2.626712     -3.310593      2.001792
  C      -3.670056     -3.160779      1.090284
  Cl     -4.847353     -4.424739      0.929432
  C      -3.782110     -2.011047      0.309605
  C      -2.836336     -0.998593      0.444885
  C      -1.162097      1.599732      2.354169
  C      -1.948466      2.534225      1.416229
  O      -0.895566      3.504889      1.405957
  C      -0.107179      2.719150      2.299266
  C       0.274030      0.504139     -1.049126
  O      -1.005072      0.862622     -1.245302
  C      -1.409416      1.310477     -2.513534
  C       1.228092      0.528072     -2.070690
  H       2.887276      1.580884     -4.031877
  H       4.161186      0.449683     -4.576994
  H       2.466939     -0.115476     -4.468917
  H       3.928117     -0.574367     -0.308835
  H       4.248289     -0.260109      1.918561
  H       3.826119     -1.959727      1.499593
  H       3.529172     -1.338797      3.151874
  H      -0.862431     -2.399891      2.845628
  H      -2.553963     -4.215002      2.605472
  H      -4.604484     -1.908675     -0.398447
  H      -2.913982     -0.094442     -0.158090
  H      -2.864313      2.945145      1.879204
  H      -2.165921      2.156334      0.401862
  H       0.878942      2.458162      1.868048
  H       0.028060      3.236472      3.266118
  H      -0.859663      2.219804     -2.802815
  H      -1.264512      0.528001     -3.275753
  H      -2.476205      1.547696     -2.439655
  H       0.957511      0.845077     -3.073402
43
Coordinates from ORCA-job file E -1854.988021546608
  C       3.182155      0.490981     -4.022507
  O       3.488794      0.105384     -2.708847
  C       2.520433      0.118289     -1.782887
  C       2.909993     -0.271758     -0.497638
  C       1.969443     -0.289697      0.534059
  O       2.270210     -0.648809      1.785567
  C       3.588161     -1.026266      2.084625
  C       0.632725      0.082770      0.281259
  S      -0.520756      0.104002      1.656787
  C      -1.756549     -1.123114      1.362316
  C      -1.693603     -2.290719      2.123214
  C      -2.650998     -3.285260      1.948370
  C      -3.663552     -3.099889      1.009703
  Cl     -4.858526     -4.336520      0.798126
  C      -3.734280     -1.937740      0.242948
  C      -2.775045     -0.945701      0.421495
  C      -1.189079      1.576748      2.357904
  C      -1.933987      2.511737      1.381499
  O      -0.886611      3.492406      1.435989
  C      -0.144066      2.712217      2.376840
  C       0.266552      0.470499     -1.018531
  O      -1.019520      0.808528     -1.192013
  C      -1.445593      1.248919     -2.456221
  C       1.200406      0.494469     -2.060136
  H       2.827757      1.532837     -4.061815
  H       4.111074      0.407813     -4.594851
  H       2.423322     -0.170823     -4.468780
  H       3.948197     -0.550389     -0.336659
  H       4.295620     -0.204506      1.893589
  H       3.892748     -1.911335      1.504503
  H       3.602662     -1.272167      3.150798
  H      -0.894970     -2.414549      2.856206
  H      -2.617191     -4.201151      2.538957
  H      -4.536343     -1.813174     -0.485236
  H      -2.814441     -0.029603     -0.166337
  H      -2.878757      2.915970      1.786771
  H      -2.100478      2.146019      0.355147
  H       0.875145      2.471249      2.018234
  H      -0.069051      3.231422      3.348501
  H      -0.913123      2.163859     -2.756566
  H      -1.303195      0.469822     -3.221063
  H      -2.513437      1.472042     -2.362453
  H       0.907855      0.794992     -3.061165
43
Coordinates from ORCA-job file E -1854.993419566370
  C       3.209836      0.435360     -4.046313
  O       3.505188      0.065375     -2.725264
  C       2.525621      0.095772     -1.809525
  C       2.912018     -0.280835     -0.518288
  C       1.969483     -0.286303      0.510629
  O       2.261989     -0.631616      1.768713
  C       3.580840     -1.004441      2.073175
  C       0.626778      0.083409      0.256359
  S      -0.486318      0.111913      1.698393
  C      -1.746022     -1.099016      1.364425
  C      -1.654090     -2.285156      2.093957
  C      -2.608481     -3.284169      1.924662
  C      -3.649774     -3.080084      1.022910
  Cl     -4.843102     -4.317818      0.814869
  C      -3.755399     -1.898215      0.291188
  C      -2.798606     -0.903464      0.465171
  C      -1.225709      1.537697      2.362630
  C      -1.975615      2.502669      1.417661
  O      -0.945543      3.499588      1.537271
  C      -0.210324      2.699542      2.469123
  C       0.273201      0.464487     -1.052991
  O      -1.007305      0.814727     -1.242364
  C      -1.411535      1.261573     -2.513224
  C       1.209727      0.474431     -2.095280
  H       2.857036      1.476405     -4.106159
  H       4.145863      0.341794     -4.605146
  H       2.453834     -0.228271     -4.494048
  H       3.951648     -0.557148     -0.362492
  H       4.290634     -0.186960      1.874258
  H       3.890819     -1.894234      1.504019
  H       3.588215     -1.237354      3.142134
  H      -0.831246     -2.416453      2.799070
  H      -2.555154     -4.216170      2.488283
  H      -4.585340     -1.764528     -0.403510
  H      -2.864648      0.029358     -0.087491
  H      -2.936367      2.874493      1.815159
  H      -2.129357      2.191846      0.373989
  H       0.830881      2.506925      2.147808
  H      -0.170404      3.186606      3.459310
  H      -0.866155      2.170189     -2.807951
  H      -1.270424      0.484386     -3.279358
  H      -2.477990      1.496008     -2.426854
  H       0.921397      0.767480     -3.099206
43
Coordinates from ORCA-job file E -1854.997114634107
  C       3.161690      0.424900     -4.058247
  O       3.483737      0.069830     -2.737875
  C       2.516437      0.090203     -1.799803
  C       2.923053     -0.269159     -0.511086
  C       1.992758     -0.281001      0.527384
  O       2.318282     -0.614274      1.789416
  C       3.650122     -0.959188      2.078256
  C       0.640767      0.063224      0.287788
  S      -0.444787      0.087897      1.765405
  C      -1.726313     -1.088690      1.376384
  C      -1.668710     -2.292729      2.081485
  C      -2.639486     -3.270504      1.878559
  C      -3.665043     -3.027213      0.967942
  Cl     -4.882740     -4.237135      0.713343
  C      -3.736037     -1.825906      0.262562
  C      -2.762966     -0.852918      0.469594
  C      -1.238814      1.511422      2.321791
  C      -1.899856      2.469572      1.317342
  O      -0.895903      3.470497      1.533992
  C      -0.256605      2.681480      2.536807
  C       0.267559      0.431440     -1.014702
  O      -1.025787      0.767138     -1.197218
  C      -1.460538      1.207422     -2.461449
  C       1.192420      0.445963     -2.068136
  H       2.787532      1.459760     -4.118219
  H       4.089422      0.345129     -4.635281
  H       2.409498     -0.257104     -4.487290
  H       3.969528     -0.526891     -0.367553
  H       4.338933     -0.127378      1.860003
  H       3.967536     -1.846965      1.508039
  H       3.682898     -1.184936      3.149601
  H      -0.859734     -2.455422      2.795018
  H      -2.611884     -4.214288      2.422482
  H      -4.553694     -1.660781     -0.438711
  H      -2.806824      0.093266     -0.062605
  H      -2.896132      2.835167      1.626332
  H      -1.955140      2.158231      0.260831
  H       0.814916      2.500709      2.326135
  H      -0.324790      3.170510      3.526267
  H      -0.929712      2.122458     -2.767146
  H      -1.323492      0.428856     -3.228307
  H      -2.529104      1.429542     -2.358592
  H       0.887102      0.727662     -3.070841
43
Coordinates from ORCA-job file E -1854.999946377432
  C       3.172908      0.387848     -4.074954
  O       3.495456      0.059165     -2.748126
  C       2.522711      0.078659     -1.814596
  C       2.925770     -0.253489     -0.517590
  C       1.986678     -0.261792      0.512361
  O       2.309546     -0.569201      1.783942
  C       3.643852     -0.888146      2.090471
  C       0.631266      0.058668      0.260636
  S      -0.445964      0.099734      1.760564
  C      -1.736858     -1.070652      1.362942
  C      -1.631520     -2.311062      1.996910
  C      -2.601334     -3.289691      1.791949
  C      -3.676545     -3.009034      0.952471
  Cl     -4.895039     -4.218218      0.690683
  C      -3.797529     -1.769369      0.323956
  C      -2.824502     -0.796807      0.531327
  C      -1.247774      1.506692      2.300258
  C      -1.831928      2.541436      1.330764
  O      -0.834262      3.506725      1.682233
  C      -0.284199      2.647557      2.678899
  C       0.262827      0.398110     -1.047309
  O      -1.036032      0.701892     -1.250640
  C      -1.468530      1.113306     -2.524491
  C       1.194742      0.407134     -2.095178
  H       2.777899      1.413991     -4.151802
  H       4.104097      0.318384     -4.647868
  H       2.435903     -0.315414     -4.496288
  H       3.975347     -0.491571     -0.364764
  H       4.320848     -0.049413      1.861782
  H       3.979211     -1.780803      1.538262
  H       3.671877     -1.094154      3.166040
  H      -0.784736     -2.502908      2.657409
  H      -2.535815     -4.261620      2.279973
  H      -4.655161     -1.575488     -0.319702
  H      -2.911301      0.179031      0.059866
  H      -2.841482      2.900554      1.604298
  H      -1.826165      2.309321      0.254208
  H       0.800606      2.471281      2.546344
  H      -0.429859      3.070206      3.690996
  H      -0.951484      2.032877     -2.841060
  H      -1.311297      0.324726     -3.277313
  H      -2.541970      1.316986     -2.433924
  H       0.889842      0.664349     -3.104242
43
Coordinates from ORCA-job file E -1855.002375519359
  C       3.146526      0.347216     -4.075276
  O       3.488143      0.051699     -2.746404
  C       2.521812      0.064007     -1.807785
  C       2.936074     -0.234890     -0.505969
  C       1.997656     -0.243121      0.524235
  O       2.329811     -0.518097      1.800934
  C       3.670072     -0.800047      2.113246
  C       0.637171      0.043736      0.271411
  S      -0.434368      0.104511      1.784504
  C      -1.734900     -1.048026      1.355225
  C      -1.596614     -2.337545      1.873749
  C      -2.571700     -3.302561      1.630087
  C      -3.688277     -2.956965      0.873281
  Cl     -4.914349     -4.146811      0.558326
  C      -3.844468     -1.665697      0.368724
  C      -2.864527     -0.708816      0.610017
  C      -1.231741      1.512749      2.278325
  C      -1.756830      2.582313      1.320055
  O      -0.781190      3.527678      1.761926
  C      -0.303227      2.636106      2.767688
  C       0.256360      0.346887     -1.037427
  O      -1.050243      0.610121     -1.243047
  C      -1.499332      0.977043     -2.522870
  C       1.184843      0.354391     -2.088126
  H       2.720407      1.359713     -4.165665
  H       4.073580      0.295756     -4.656260
  H       2.427107     -0.384940     -4.477180
  H       3.990978     -0.446150     -0.350628
  H       4.326038      0.049894      1.865940
  H       4.024052     -1.696141      1.578521
  H       3.704689     -0.983391      3.192470
  H      -0.717079     -2.584294      2.470536
  H      -2.476407     -4.313891      2.024306
  H      -4.736280     -1.419035     -0.207036
  H      -2.984415      0.306421      0.236362
  H      -2.779449      2.934795      1.553586
  H      -1.692187      2.386206      0.238218
  H       0.788207      2.464129      2.705801
  H      -0.523806      3.022533      3.781029
  H      -1.005185      1.899559     -2.867231
  H      -1.328975      0.172016     -3.255277
  H      -2.576647      1.157616     -2.431935
  H       0.868770      0.583123     -3.100689
43
Coordinates from ORCA-job file E -1855.004765099148
  C       3.093196      0.266028     -4.078018
  O       3.457702      0.015177     -2.746960
  C       2.505514      0.040074     -1.796698
  C       2.937029     -0.222795     -0.491693
  C       2.006189     -0.218567      0.546062
  O       2.350289     -0.462110      1.824787
  C       3.695112     -0.716423      2.135907
  C       0.643504      0.044858      0.298995
  S      -0.436685      0.127543      1.807423
  C      -1.724337     -1.029268      1.345972
  C      -1.553515     -2.354453      1.748075
  C      -2.521401     -3.311599      1.447550
  C      -3.664251     -2.921808      0.754653
  Cl     -4.877713     -4.100092      0.357635
  C      -3.855388     -1.592483      0.376022
  C      -2.882729     -0.644552      0.671351
  C      -1.215452      1.547189      2.254143
  C      -1.659599      2.654000      1.303481
  O      -0.721887      3.574078      1.856427
  C      -0.335777      2.642780      2.867890
  C       0.242471      0.314062     -1.008647
  O      -1.069118      0.552152     -1.201061
  C      -1.545372      0.867132     -2.482677
  C       1.160590      0.306508     -2.068210
  H       2.648716      1.268218     -4.190483
  H       4.011032      0.213735     -4.672900
  H       2.380628     -0.489353     -4.447570
  H       3.995064     -0.419487     -0.338100
  H       4.334425      0.139369      1.866687
  H       4.058787     -1.618580      1.618179
  H       3.740150     -0.876293      3.218054
  H      -0.652577     -2.643124      2.292830
  H      -2.396043     -4.351520      1.748624
  H      -4.767463     -1.308468     -0.148992
  H      -3.034307      0.397471      0.391263
  H      -2.696988      3.001560      1.474483
  H      -1.510585      2.489417      0.223129
  H       0.756125      2.468812      2.892367
  H      -0.651204      2.987865      3.870537
  H      -1.071320      1.783696     -2.869325
  H      -1.377664      0.038530     -3.189131
  H      -2.623481      1.034685     -2.380241
  H       0.828433      0.505838     -3.082120
43
Coordinates from ORCA-job file E -1855.007052100823
  C       3.054477      0.235392     -4.065644
  O       3.429458     -0.002107     -2.734814
  C       2.484183      0.017502     -1.778570
  C       2.930990     -0.225208     -0.473888
  C       2.009807     -0.217664      0.573305
  O       2.363954     -0.437880      1.852786
  C       3.714558     -0.664932      2.159667
  C       0.644858      0.027855      0.332980
  S      -0.447801      0.139367      1.823837
  C      -1.719836     -1.025440      1.339286
  C      -1.510628     -2.371928      1.628555
  C      -2.475054     -3.320580      1.289837
  C      -3.651661     -2.900245      0.675994
  Cl     -4.858948     -4.066537      0.231619
  C      -3.881407     -1.548323      0.415038
  C      -2.912640     -0.609264      0.748323
  C      -1.199305      1.582994      2.205211
  C      -1.547930      2.703584      1.231873
  O      -0.648340      3.603589      1.875077
  C      -0.363952      2.655452      2.907463
  C       0.224102      0.277705     -0.974734
  O      -1.090266      0.508381     -1.150226
  C      -1.587502      0.794274     -2.430078
  C       1.133097      0.265739     -2.042064
  H       2.597246      1.231426     -4.182064
  H       3.969391      0.191528     -4.665585
  H       2.349543     -0.530595     -4.427741
  H       3.992136     -0.407689     -0.324048
  H       4.337230      0.198597      1.876440
  H       4.091346     -1.567867      1.652816
  H       3.768670     -0.809321      3.243454
  H      -0.584701     -2.688112      2.113991
  H      -2.318962     -4.378087      1.503231
  H      -4.819127     -1.239453     -0.047620
  H      -3.096415      0.449553      0.565440
  H      -2.591482      3.064870      1.317298
  H      -1.308554      2.538373      0.166697
  H       0.718840      2.466740      3.024022
  H      -0.769604      2.992255      3.879330
  H      -1.130271      1.708026     -2.842611
  H      -1.421932     -0.045973     -3.123246
  H      -2.665970      0.951608     -2.316271
  H       0.788505      0.452198     -3.054665
43
Coordinates from ORCA-job file E -1855.009120085388
  C       3.038508      0.245626     -4.044086
  O       3.416074      0.008932     -2.713162
  C       2.470586      0.013150     -1.755809
  C       2.927831     -0.217823     -0.452516
  C       2.013679     -0.220963      0.600918
  O       2.372977     -0.426362      1.881848
  C       3.730167     -0.619367      2.187306
  C       0.644470     -0.000643      0.363335
  S      -0.456688      0.131652      1.834385
  C      -1.727518     -1.027111      1.329558
  C      -1.481695     -2.386307      1.495586
  C      -2.454518     -3.320481      1.139659
  C      -3.672728     -2.872534      0.636576
  Cl     -4.891763     -4.022302      0.183963
  C      -3.935596     -1.508002      0.497369
  C      -2.957966     -0.583604      0.846745
  C      -1.179239      1.600003      2.150846
  C      -1.436503      2.716289      1.143722
  O      -0.571260      3.605778      1.849617
  C      -0.375291      2.658664      2.905882
  C       0.209514      0.235481     -0.945819
  O      -1.109660      0.447108     -1.110080
  C      -1.621346      0.715093     -2.388765
  C       1.114145      0.234818     -2.017133
  H       2.570210      1.236916     -4.158568
  H       3.955157      0.214223     -4.642534
  H       2.342635     -0.526712     -4.410226
  H       3.992725     -0.380459     -0.306114
  H       4.332488      0.257196      1.899871
  H       4.129357     -1.515537      1.685677
  H       3.788625     -0.756530      3.272032
  H      -0.523444     -2.724659      1.896734
  H      -2.273267     -4.388570      1.259059
  H      -4.904485     -1.179006      0.120850
  H      -3.160536      0.484840      0.763348
  H      -2.475733      3.099291      1.141385
  H      -1.118031      2.534756      0.102182
  H       0.693013      2.453513      3.099603
  H      -0.845129      3.010769      3.842692
  H      -1.188271      1.636747     -2.809908
  H      -1.441194     -0.124470     -3.079030
  H      -2.702345      0.848375     -2.268292
  H       0.762147      0.412021     -3.029005
43
Coordinates from ORCA-job file E -1855.011005752861
  C       3.024103      0.235651     -4.027458
  O       3.406897      0.018967     -2.694066
  C       2.460529      0.014515     -1.735693
  C       2.926577     -0.192835     -0.431938
  C       2.017777     -0.206328      0.625344
  O       2.382337     -0.389986      1.908661
  C       3.746506     -0.542224      2.211592
  C       0.642603     -0.021133      0.387633
  S      -0.462385      0.118457      1.842866
  C      -1.745222     -1.021247      1.315594
  C      -1.468167     -2.383936      1.342684
  C      -2.451717     -3.299829      0.968406
  C      -3.706065     -2.830960      0.587820
  Cl     -4.937221     -3.962311      0.120054
  C      -3.995278     -1.464512      0.584206
  C      -3.007515     -0.557894      0.953089
  C      -1.158576      1.607434      2.117572
  C      -1.317928      2.727225      1.094424
  O      -0.492894      3.599821      1.867973
  C      -0.383067      2.644382      2.929834
  C       0.197755      0.190521     -0.924281
  O      -1.127919      0.364517     -1.083846
  C      -1.650468      0.604391     -2.364535
  C       1.099568      0.201569     -1.998187
  H       2.539312      1.217847     -4.152338
  H       3.941859      0.212734     -4.625008
  H       2.340758     -0.551527     -4.385791
  H       3.995563     -0.330045     -0.288917
  H       4.325079      0.346464      1.912755
  H       4.170149     -1.432464      1.719564
  H       3.810923     -0.665188      3.297892
  H      -0.479798     -2.737121      1.646523
  H      -2.252646     -4.371178      0.981499
  H      -4.989982     -1.122294      0.298635
  H      -3.217913      0.512483      0.979113
  H      -2.343716      3.133812      1.002920
  H      -0.918526      2.544433      0.081514
  H       0.666154      2.418192      3.192709
  H      -0.904181      3.005064      3.835920
  H      -1.250399      1.538176     -2.792201
  H      -1.439780     -0.232679     -3.049079
  H      -2.735253      0.699862     -2.242344
  H       0.742269      0.358974     -3.011413
43
Coordinates from ORCA-job file E -1855.012639343503
  C       3.021039      0.229923     -4.010014
  O       3.401562      0.010991     -2.675863
  C       2.452932      0.014463     -1.718584
  C       2.917386     -0.196036     -0.415042
  C       2.009681     -0.207320      0.642250
  O       2.369226     -0.395527      1.926003
  C       3.733972     -0.550647      2.229218
  C       0.634607     -0.021979      0.401108
  S      -0.476796      0.121716      1.832013
  C      -1.757959     -1.030853      1.313255
  C      -1.436396     -2.381607      1.228746
  C      -2.419489     -3.302953      0.868207
  C      -3.712155     -2.851815      0.612192
  Cl     -4.941631     -3.996364      0.167617
  C      -4.040302     -1.498801      0.716512
  C      -3.053605     -0.585659      1.075058
  C      -1.162069      1.629197      2.049823
  C      -1.221914      2.728566      0.996553
  O      -0.464039      3.610444      1.826811
  C      -0.432686      2.665652      2.902658
  C       0.191620      0.198168     -0.910902
  O      -1.132286      0.383829     -1.067168
  C      -1.650832      0.631997     -2.348485
  C       1.094443      0.211034     -1.983821
  H       2.546523      1.216885     -4.136307
  H       3.939054      0.195452     -4.606665
  H       2.329407     -0.550750     -4.366891
  H       3.985796     -0.339620     -0.274001
  H       4.315337      0.336137      1.930769
  H       4.156724     -1.441369      1.737401
  H       3.797224     -0.674083      3.315495
  H      -0.417260     -2.717424      1.434456
  H      -2.192556     -4.366426      0.795961
  H      -5.062376     -1.174241      0.522844
  H      -3.278072      0.476854      1.189654
  H      -2.227325      3.144238      0.792857
  H      -0.725594      2.530553      0.028427
  H       0.594798      2.434321      3.238466
  H      -1.008726      3.041830      3.768394
  H      -1.243848      1.566719     -2.768080
  H      -1.438897     -0.202153     -3.036115
  H      -2.735267      0.731010     -2.227991
  H       0.740848      0.375449     -2.997119
43
Coordinates from ORCA-job file E -1855.013646880543
  C       3.002514      0.149732     -4.012189
  O       3.392271     -0.022011     -2.673763
  C       2.446727     -0.002043     -1.714331
  C       2.917324     -0.174197     -0.406845
  C       2.011966     -0.173802      0.651663
  O       2.374707     -0.330111      1.938172
  C       3.742024     -0.457774      2.242304
  C       0.633503     -0.013909      0.408542
  S      -0.476218      0.128407      1.834573
  C      -1.769174     -1.007606      1.289167
  C      -1.422965     -2.337144      1.066155
  C      -2.406253     -3.249660      0.688315
  C      -3.722235     -2.811229      0.551691
  Cl     -4.953251     -3.946502      0.083421
  C      -4.071388     -1.481893      0.792428
  C      -3.084227     -0.576111      1.170886
  C      -1.149213      1.639562      2.044026
  C      -1.120703      2.767811      1.022189
  O      -0.443900      3.626330      1.942619
  C      -0.475569      2.641365      2.978765
  C       0.185862      0.172574     -0.905648
  O      -1.140667      0.333737     -1.061259
  C      -1.667308      0.538590     -2.347168
  C       1.086005      0.173458     -1.981040
  H       2.514051      1.125577     -4.167114
  H       3.917862      0.107727     -4.612112
  H       2.319516     -0.651107     -4.339858
  H       3.987923     -0.302757     -0.268632
  H       4.309222      0.430233      1.921622
  H       4.176975     -1.352884      1.769607
  H       3.808572     -0.555333      3.330825
  H      -0.384992     -2.659255      1.178536
  H      -2.164119     -4.297031      0.508402
  H      -5.110705     -1.171374      0.685870
  H      -3.312977      0.469228      1.392611
  H      -2.101896      3.191860      0.733587
  H      -0.534642      2.604157      0.097157
  H       0.529267      2.397071      3.370445
  H      -1.102222      2.985712      3.822488
  H      -1.277325      1.469190     -2.791212
  H      -1.440462     -0.309334     -3.012732
  H      -2.752650      0.620496     -2.225482
  H       0.728869      0.310050     -2.996982
43
Coordinates from ORCA-job file E -1855.014303016453
  C       2.989945      0.089635     -3.993005
  O       3.383443     -0.080670     -2.656150
  C       2.444276     -0.037478     -1.694319
  C       2.915924     -0.213426     -0.386872
  C       2.012130     -0.189387      0.672345
  O       2.373953     -0.348514      1.956974
  C       3.737593     -0.504338      2.259626
  C       0.637685     -0.001037      0.432118
  S      -0.467301      0.158179      1.860070
  C      -1.745388     -0.994403      1.299296
  C      -1.366491     -2.286787      0.944933
  C      -2.337874     -3.203516      0.550434
  C      -3.674572     -2.807266      0.527843
  Cl     -4.892814     -3.943679      0.029084
  C      -4.053210     -1.517917      0.900676
  C      -3.077452     -0.606248      1.295493
  C      -1.159887      1.661344      2.017132
  C      -1.174859      2.762746      0.968697
  O      -0.545720      3.673192      1.872136
  C      -0.519052      2.706360      2.924412
  C       0.190173      0.195121     -0.878047
  O      -1.130576      0.391467     -1.025851
  C      -1.662702      0.598277     -2.308288
  C       1.086534      0.169779     -1.956253
  H       2.516385      1.072135     -4.150464
  H       3.900589      0.030024     -4.597779
  H       2.292781     -0.702172     -4.311795
  H       3.983949     -0.365221     -0.251869
  H       4.322026      0.369378      1.931221
  H       4.150329     -1.412103      1.791409
  H       3.804517     -0.596332      3.348207
  H      -0.311995     -2.574271      0.962088
  H      -2.071657     -4.221602      0.265642
  H      -5.107641     -1.240619      0.878186
  H      -3.322277      0.411962      1.612590
  H      -2.170988      3.134576      0.658744
  H      -0.572771      2.598485      0.053898
  H       0.501199      2.511533      3.304453
  H      -1.146017      3.037223      3.773202
  H      -1.252920      1.513976     -2.764492
  H      -1.463811     -0.261657     -2.967192
  H      -2.743994      0.708719     -2.178014
  H       0.728641      0.314332     -2.970821
43
Coordinates from ORCA-job file E -1855.014669069344
  C       3.031412      0.124975     -3.988285
  O       3.405019     -0.075985     -2.649344
  C       2.457508     -0.044180     -1.694435
  C       2.917857     -0.237737     -0.384958
  C       2.007207     -0.210253      0.669045
  O       2.359064     -0.379588      1.955460
  C       3.717889     -0.554361      2.270630
  C       0.637906     -0.004569      0.419390
  S      -0.484078      0.174668      1.820556
  C      -1.750019     -1.013908      1.294190
  C      -1.371887     -2.286314      0.870811
  C      -2.353061     -3.211876      0.526468
  C      -3.696189     -2.845064      0.618251
  Cl     -4.926792     -3.997446      0.191960
  C      -4.069783     -1.575626      1.053467
  C      -3.083868     -0.653261      1.399347
  C      -1.170186      1.690642      1.949593
  C      -1.143108      2.787288      0.898388
  O      -0.607564      3.715335      1.843034
  C      -0.579549      2.737354      2.885508
  C       0.197985      0.206640     -0.892590
  O      -1.119063      0.425507     -1.045521
  C      -1.645977      0.642718     -2.328958
  C       1.102748      0.179374     -1.963914
  H       2.565016      1.113490     -4.129778
  H       3.950104      0.075188     -4.582215
  H       2.335521     -0.656935     -4.333097
  H       3.983466     -0.399530     -0.242220
  H       4.315832      0.313080      1.948999
  H       4.121471     -1.467652      1.804534
  H       3.774877     -0.649460      3.359828
  H      -0.314455     -2.551023      0.792415
  H      -2.090006     -4.215232      0.191415
  H      -5.127869     -1.319936      1.120068
  H      -3.314518      0.357281      1.750871
  H      -2.121357      3.128163      0.508032
  H      -0.464580      2.630593      0.036232
  H       0.437955      2.562842      3.283670
  H      -1.233081      3.040395      3.724684
  H      -1.226952      1.556936     -2.779855
  H      -1.451500     -0.216587     -2.990371
  H      -2.727059      0.761691     -2.202557
  H       0.753761      0.342159     -2.979049
43
Coordinates from ORCA-job file E -1855.014796296439
  C       3.024396      0.108507     -3.988383
  O       3.406906     -0.076865     -2.649668
  C       2.463104     -0.041630     -1.691535
  C       2.927673     -0.224671     -0.382084
  C       2.018837     -0.199494      0.673989
  O       2.376443     -0.359506      1.960011
  C       3.738639     -0.514677      2.271436
  C       0.646238     -0.008842      0.426774
  S      -0.474119      0.164883      1.835629
  C      -1.752562     -1.006633      1.290790
  C      -1.386285     -2.275543      0.846409
  C      -2.374740     -3.187363      0.487295
  C      -3.715210     -2.811053      0.582813
  Cl     -4.954174     -3.941664      0.123503
  C      -4.078399     -1.546608      1.040107
  C      -3.085274     -0.638286      1.403797
  C      -1.158452      1.676452      1.978891
  C      -1.170242      2.776115      0.930987
  O      -0.639686      3.709926      1.873414
  C      -0.557518      2.725781      2.906461
  C       0.203247      0.191038     -0.886708
  O      -1.115871      0.391275     -1.042717
  C      -1.642813      0.589765     -2.329197
  C       1.106111      0.165752     -1.959450
  H       2.550547      1.092468     -4.137060
  H       3.940177      0.059062     -4.586872
  H       2.331596     -0.681250     -4.321824
  H       3.994864     -0.377180     -0.241637
  H       4.323567      0.360533      1.946844
  H       4.153917     -1.422995      1.805875
  H       3.799736     -0.606995      3.360661
  H      -0.331841     -2.549568      0.768064
  H      -2.119356     -4.186716      0.134720
  H      -5.134213     -1.281896      1.104410
  H      -3.308846      0.369981      1.763721
  H      -2.158684      3.099346      0.552892
  H      -0.497270      2.635812      0.060424
  H       0.477143      2.568206      3.266426
  H      -1.184199      3.010706      3.771819
  H      -1.236060      1.505944     -2.787288
  H      -1.434289     -0.272363     -2.982635
  H      -2.725887      0.694312     -2.206139
  H       0.752955      0.315732     -2.975264
43
Coordinates from ORCA-job file E -1855.014899553691
  C       3.033432      0.119726     -3.989454
  O       3.416492     -0.072571     -2.651757
  C       2.472669     -0.038735     -1.692755
  C       2.936826     -0.226457     -0.384241
  C       2.028330     -0.204988      0.672836
  O       2.387583     -0.368804      1.958303
  C       3.750622     -0.525015      2.266898
  C       0.655186     -0.013973      0.427309
  S      -0.465709      0.161735      1.841309
  C      -1.750084     -1.006512      1.297888
  C      -1.394278     -2.277656      0.852160
  C      -2.389488     -3.181899      0.491709
  C      -3.727681     -2.797756      0.588138
  Cl     -4.973108     -3.918886      0.124346
  C      -4.081990     -1.531297      1.047300
  C      -3.082322     -0.630066      1.410892
  C      -1.155750      1.667047      1.984646
  C      -1.207246      2.760783      0.931883
  O      -0.706582      3.713284      1.872204
  C      -0.563534      2.731702      2.901784
  C       0.212997      0.189801     -0.886943
  O      -1.106483      0.389407     -1.044166
  C      -1.633924      0.580249     -2.331826
  C       1.115771      0.168290     -1.959839
  H       2.561741      1.105420     -4.133740
  H       3.949057      0.071093     -4.588382
  H       2.338572     -0.666699     -4.326610
  H       4.004021     -0.379220     -0.244285
  H       4.335625      0.350913      1.944381
  H       4.165603     -1.431981      1.798627
  H       3.812997     -0.620409      3.355849
  H      -0.342408     -2.561099      0.775424
  H      -2.139905     -4.182603      0.138826
  H      -5.135604     -1.258656      1.111606
  H      -3.301896      0.378701      1.769629
  H      -2.203942      3.050778      0.550150
  H      -0.526261      2.638430      0.064911
  H       0.487406      2.606561      3.226422
  H      -1.168231      2.997207      3.788321
  H      -1.230126      1.495340     -2.794763
  H      -1.423196     -0.284401     -2.981065
  H      -2.717366      0.682688     -2.209111
  H       0.762286      0.320330     -2.975110
43
Coordinates from ORCA-job file E -1855.014992510244
  C       3.040986      0.163586     -3.981418
  O       3.425388     -0.045265     -2.646488
  C       2.480487     -0.030104     -1.687281
  C       2.945917     -0.223751     -0.380702
  C       2.038191     -0.217410      0.677543
  O       2.398773     -0.384096      1.962530
  C       3.763599     -0.529230      2.269972
  C       0.664111     -0.036275      0.433557
  S      -0.460266      0.145457      1.843683
  C      -1.754989     -1.013321      1.300190
  C      -1.416102     -2.285860      0.847905
  C      -2.423305     -3.177518      0.488214
  C      -3.757044     -2.780642      0.592152
  Cl     -5.014899     -3.888665      0.131158
  C      -4.095405     -1.511962      1.058340
  C      -3.083787     -0.623854      1.420958
  C      -1.135271      1.656491      1.976252
  C      -1.213678      2.733713      0.909174
  O      -0.755959      3.711065      1.845762
  C      -0.552399      2.739958      2.876648
  C       0.219544      0.172227     -0.880131
  O      -1.101719      0.363283     -1.034497
  C      -1.633771      0.548000     -2.321297
  C       1.121933      0.167119     -1.953208
  H       2.562459      1.148015     -4.111783
  H       3.957243      0.130030     -4.580502
  H       2.351583     -0.622377     -4.330684
  H       4.014382     -0.367417     -0.240726
  H       4.341075      0.353229      1.951802
  H       4.187371     -1.430281      1.798322
  H       3.826791     -0.628738      3.358587
  H      -0.368013     -2.582086      0.765537
  H      -2.184469     -4.179402      0.131151
  H      -5.145341     -1.227640      1.130315
  H      -3.293090      0.383124      1.789710
  H      -2.211427      2.988297      0.506267
  H      -0.511792      2.622878      0.057164
  H       0.513292      2.649215      3.163278
  H      -1.133723      2.993234      3.781594
  H      -1.242242      1.468135     -2.784900
  H      -1.413309     -0.313968     -2.970796
  H      -2.718180      0.637553     -2.196552
  H       0.767157      0.325048     -2.967097
43
Coordinates from ORCA-job file E -1855.015064184584
  C       3.045504      0.174333     -3.980849
  O       3.427467     -0.040924     -2.646430
  C       2.481353     -0.027710     -1.688197
  C       2.945295     -0.228311     -0.382153
  C       2.036522     -0.226836      0.674937
  O       2.394901     -0.398777      1.960036
  C       3.758810     -0.544505      2.270044
  C       0.663142     -0.043477      0.430413
  S      -0.458103      0.143508      1.842562
  C      -1.753977     -1.014948      1.307698
  C      -1.414087     -2.288832      0.860552
  C      -2.420641     -3.182273      0.502782
  C      -3.754238     -2.785014      0.603069
  Cl     -5.011389     -3.895514      0.146456
  C      -4.093309     -1.514095      1.063534
  C      -3.082433     -0.624615      1.423318
  C      -1.131505      1.656022      1.968536
  C      -1.214996      2.728301      0.897860
  O      -0.775437      3.714128      1.833777
  C      -0.557736      2.746461      2.865259
  C       0.220056      0.172940     -0.881922
  O      -1.101022      0.368908     -1.034923
  C      -1.633949      0.560462     -2.320267
  C       1.122973      0.172473     -1.954500
  H       2.571547      1.161257     -4.108550
  H       3.962155      0.138257     -4.579134
  H       2.352886     -0.607194     -4.333578
  H       4.013421     -0.373979     -0.241374
  H       4.336709      0.339355      1.956625
  H       4.184058     -1.443350      1.795573
  H       3.819538     -0.648303      3.358407
  H      -0.365479     -2.583808      0.777846
  H      -2.180832     -4.185173      0.149242
  H      -5.143365     -1.229490      1.134154
  H      -3.294105      0.383562      1.788924
  H      -2.212672      2.969470      0.485793
  H      -0.504944      2.622959      0.051721
  H       0.510671      2.668008      3.145403
  H      -1.137137      2.995484      3.772467
  H      -1.241825      1.482496     -2.779557
  H      -1.414955     -0.298590     -2.974131
  H      -2.718100      0.650729     -2.193926
  H       0.769329      0.336402     -2.967798
43
Coordinates from ORCA-job file E -1855.015115242160
  C       3.047174      0.181879     -3.979313
  O       3.427918     -0.034491     -2.644948
  C       2.480819     -0.024898     -1.687965
  C       2.943855     -0.229641     -0.382006
  C       2.033963     -0.232343      0.673756
  O       2.390445     -0.410045      1.958415
  C       3.753652     -0.557015      2.269546
  C       0.660809     -0.049281      0.427976
  S      -0.458624      0.140130      1.839813
  C      -1.754957     -1.016049      1.309595
  C      -1.412584     -2.292923      0.872688
  C      -2.417519     -3.190094      0.519390
  C      -3.751292     -2.792539      0.613630
  Cl     -5.007267     -3.907711      0.165300
  C      -4.092279     -1.518141      1.063257
  C      -3.083029     -0.625557      1.419009
  C      -1.126240      1.656033      1.960769
  C      -1.213032      2.724637      0.887882
  O      -0.787069      3.715896      1.823891
  C      -0.558108      2.750110      2.854752
  C       0.218962      0.173125     -0.882990
  O      -1.101887      0.371345     -1.034807
  C      -1.633305      0.576821     -2.318451
  C       1.122594      0.177383     -1.954909
  H       2.573246      1.168820     -4.106860
  H       3.964120      0.145702     -4.577097
  H       2.354749     -0.599320     -4.333150
  H       4.011775     -0.376405     -0.240318
  H       4.332134      0.327544      1.959036
  H       4.179189     -1.454362      1.792431
  H       3.813396     -0.664069      3.357610
  H      -0.363244     -2.586600      0.793995
  H      -2.176258     -4.195508      0.174107
  H      -5.142722     -1.233663      1.129673
  H      -3.297211      0.385077      1.777225
  H      -2.210327      2.955554      0.468252
  H      -0.496926      2.623690      0.045636
  H       0.512477      2.680554      3.129330
  H      -1.135998      2.995045      3.763974
  H      -1.241171      1.504418     -2.766496
  H      -1.412631     -0.274617     -2.981695
  H      -2.717635      0.664860     -2.192393
  H       0.770135      0.346448     -2.967839
43
Coordinates from ORCA-job file E -1855.015144610456
  C       3.045273      0.178535     -3.979922
  O       3.426101     -0.036136     -2.645371
  C       2.479227     -0.025894     -1.688383
  C       2.942123     -0.233183     -0.382545
  C       2.032027     -0.235950      0.673030
  O       2.388217     -0.415346      1.957487
  C       3.751235     -0.562776      2.268886
  C       0.659068     -0.050185      0.427163
  S      -0.459451      0.140941      1.839176
  C      -1.754218     -1.016071      1.311329
  C      -1.408100     -2.294686      0.881738
  C      -2.410205     -3.195250      0.529325
  C      -3.744814     -2.798905      0.617061
  Cl     -4.997987     -3.917344      0.168848
  C      -4.089423     -1.523035      1.059416
  C      -3.082911     -0.627021      1.414648
  C      -1.125503      1.657457      1.957360
  C      -1.213957      2.725631      0.884565
  O      -0.791520      3.717727      1.821085
  C      -0.560674      2.752279      2.851860
  C       0.217560      0.174036     -0.883277
  O      -1.103146      0.373599     -1.034633
  C      -1.632278      0.594008     -2.316679
  C       1.121340      0.178670     -1.955158
  H       2.573117      1.166098     -4.109139
  H       3.961769      0.139406     -4.578184
  H       2.351176     -0.602033     -4.331928
  H       4.009779     -0.381931     -0.241127
  H       4.330007      0.321657      1.958537
  H       4.176554     -1.460009      1.791318
  H       3.810934     -0.670153      3.356889
  H      -0.357878     -2.586485      0.808389
  H      -2.166477     -4.202008      0.189790
  H      -5.140559     -1.239826      1.120004
  H      -3.300122      0.385197      1.766417
  H      -2.211480      2.953275      0.463500
  H      -0.497126      2.626734      0.042446
  H       0.509942      2.685714      3.127196
  H      -1.140159      2.995317      3.760620
  H      -1.237079      1.525479     -2.753978
  H      -1.413047     -0.250698     -2.988933
  H      -2.716554      0.683405     -2.191188
  H       0.769319      0.349557     -2.967937
43
Coordinates from ORCA-job file E -1855.015200336860
  C       3.041985      0.174205     -3.981208
  O       3.423341     -0.037662     -2.646402
  C       2.476808     -0.029087     -1.689205
  C       2.939974     -0.240575     -0.383854
  C       2.029980     -0.243966      0.671870
  O       2.386354     -0.426817      1.955737
  C       3.749560     -0.572393      2.266985
  C       0.657133     -0.054976      0.426570
  S      -0.460492      0.141182      1.838670
  C      -1.752817     -1.018147      1.315504
  C      -1.401586     -2.301174      0.902149
  C      -2.399365     -3.206701      0.551022
  C      -3.734998     -2.810319      0.623420
  Cl     -4.983929     -3.933232      0.174118
  C      -4.084871     -1.530883      1.050298
  C      -3.082481     -0.629665      1.405039
  C      -1.123018      1.658424      1.949414
  C      -1.217983      2.724524      0.875781
  O      -0.803786      3.719657      1.812386
  C      -0.566036      2.756560      2.843932
  C       0.215486      0.171648     -0.883134
  O      -1.105287      0.372003     -1.033559
  C      -1.629340      0.630468     -2.310489
  C       1.119347      0.178270     -1.955120
  H       2.570354      1.161762     -4.112501
  H       3.957999      0.133181     -4.580064
  H       2.347162     -0.606766     -4.330942
  H       4.007397     -0.391630     -0.243413
  H       4.326864      0.313220      1.957193
  H       4.176260     -1.468344      1.788199
  H       3.809749     -0.680690      3.354839
  H      -0.350271     -2.591801      0.841996
  H      -2.152255     -4.216921      0.224579
  H      -5.136839     -1.248382      1.097905
  H      -3.304213      0.386002      1.743255
  H      -2.216457      2.943791      0.452314
  H      -0.499772      2.630265      0.033884
  H       0.505006      2.698498      3.119596
  H      -1.147751      2.995792      3.752299
  H      -1.225641      1.570455     -2.721282
  H      -1.415912     -0.197270     -3.005325
  H      -2.713241      0.724940     -2.185295
  H       0.767681      0.352354     -2.967460
43
Coordinates from ORCA-job file E -1855.015216930242
  C       3.041315      0.171729     -3.981733
  O       3.423101     -0.039305     -2.646893
  C       2.476856     -0.030372     -1.689381
  C       2.940380     -0.242351     -0.384275
  C       2.030755     -0.245721      0.671813
  O       2.387534     -0.429104      1.955508
  C       3.751030     -0.573449      2.266340
  C       0.657962     -0.055831      0.427165
  S      -0.460217      0.141755      1.839032
  C      -1.751919     -1.019172      1.316042
  C      -1.400279     -2.302802      0.904846
  C      -2.397526     -3.208658      0.553476
  C      -3.733279     -2.812024      0.623407
  Cl     -4.981637     -3.935292      0.173258
  C      -4.083749     -1.532287      1.048501
  C      -3.081801     -0.630585      1.403618
  C      -1.122677      1.658556      1.947274
  C      -1.220512      2.724433      0.873733
  O      -0.808416      3.720186      1.810625
  C      -0.569377      2.757926      2.842682
  C       0.215809      0.170502     -0.882606
  O      -1.105251      0.369030     -1.032837
  C      -1.628621      0.639055     -2.307655
  C       1.119353      0.176789     -1.954863
  H       2.570277      1.159505     -4.113581
  H       3.957156      0.129928     -4.580813
  H       2.345931     -0.609123     -4.330594
  H       4.007846     -0.393666     -0.244477
  H       4.327487      0.312523      1.956014
  H       4.178362     -1.469265      1.787900
  H       3.811605     -0.681219      3.354233
  H      -0.348879     -2.593620      0.847299
  H      -2.150204     -4.219437      0.228933
  H      -5.135817     -1.249921      1.094333
  H      -3.303775      0.385408      1.740421
  H      -2.219435      2.941648      0.450318
  H      -0.502167      2.631998      0.031732
  H       0.501386      2.702703      3.119904
  H      -1.152603      2.995927      3.750406
  H      -1.219276      1.579026     -2.712952
  H      -1.422141     -0.185382     -3.008488
  H      -2.711776      0.739793     -2.180742
  H       0.767284      0.349963     -2.967226
43
Coordinates from ORCA-job file E -1855.015234122527
  C       3.042105      0.169694     -3.982377
  O       3.424364     -0.041117     -2.647585
  C       2.478193     -0.032593     -1.689796
  C       2.942243     -0.243543     -0.384921
  C       2.033210     -0.247156      0.671697
  O       2.390573     -0.430678      1.955332
  C       3.754521     -0.572822      2.265639
  C       0.660444     -0.057788      0.427945
  S      -0.458755      0.141480      1.839526
  C      -1.750631     -1.022052      1.316885
  C      -1.400725     -2.305885      0.905597
  C      -2.399102     -3.210422      0.554187
  C      -3.734457     -2.812379      0.624080
  Cl     -4.983742     -3.934402      0.173324
  C      -4.083416     -1.532352      1.049518
  C      -3.080298     -0.631974      1.404575
  C      -1.122675      1.657178      1.944781
  C      -1.225403      2.722060      0.870840
  O      -0.815670      3.719586      1.807005
  C      -0.574827      2.759268      2.840453
  C       0.217515      0.167577     -0.882104
  O      -1.103811      0.364058     -1.032246
  C      -1.626699      0.648425     -2.304061
  C       1.120399      0.173479     -1.954761
  H       2.569223      1.156675     -4.113733
  H       3.958253      0.130302     -4.581186
  H       2.348374     -0.612384     -4.331663
  H       4.009934     -0.394013     -0.245757
  H       4.329555      0.313766      1.954485
  H       4.183047     -1.468525      1.788104
  H       3.815497     -0.679586      3.353646
  H      -0.349664     -2.598048      0.848009
  H      -2.153046     -4.221442      0.229407
  H      -5.135188     -1.248985      1.095880
  H      -3.300674      0.384147      1.742020
  H      -2.225399      2.936473      0.448595
  H      -0.507307      2.631567      0.028545
  H       0.495555      2.708140      3.119725
  H      -1.159849      2.996392      3.747255
  H      -1.208785      1.586754     -2.704319
  H      -1.431634     -0.173030     -3.011752
  H      -2.708478      0.759658     -2.173859
  H       0.767332      0.344296     -2.967234
43
Coordinates from ORCA-job file E -1855.015239651987
  C       3.043003      0.170151     -3.982272
  O       3.425005     -0.041858     -2.647583
  C       2.478737     -0.032792     -1.689850
  C       2.942661     -0.243959     -0.385012
  C       2.033635     -0.248021      0.671573
  O       2.390909     -0.431549      1.955253
  C       3.754883     -0.573378      2.265575
  C       0.660936     -0.058819      0.427778
  S      -0.458306      0.140928      1.839043
  C      -1.750429     -1.023250      1.317059
  C      -1.401024     -2.306912      0.905323
  C      -2.399972     -3.211309      0.554866
  C      -3.735173     -2.813180      0.626093
  Cl     -4.984871     -3.935423      0.177147
  C      -4.083550     -1.532989      1.051821
  C      -3.079920     -0.632920      1.405863
  C      -1.122608      1.656575      1.943027
  C      -1.225628      2.720503      0.868293
  O      -0.817941      3.719240      1.804114
  C      -0.577138      2.759873      2.838478
  C       0.218056      0.166935     -0.882241
  O      -1.103389      0.362849     -1.032353
  C      -1.626001      0.652520     -2.303010
  C       1.120869      0.173252     -1.954897
  H       2.570812      1.157535     -4.112985
  H       3.959209      0.130514     -4.580985
  H       2.348786     -0.611230     -4.332159
  H       4.010359     -0.394398     -0.245743
  H       4.329788      0.313251      1.954308
  H       4.183602     -1.469114      1.788276
  H       3.815834     -0.679945      3.353610
  H      -0.350038     -2.599161      0.846282
  H      -2.154300     -4.222316      0.229750
  H      -5.135229     -1.249458      1.099432
  H      -3.299712      0.383183      1.743929
  H      -2.225561      2.933614      0.445152
  H      -0.506552      2.630338      0.026831
  H       0.493010      2.710131      3.118885
  H      -1.163337      2.997035      3.744516
  H      -1.206891      1.591660     -2.700112
  H      -1.432394     -0.166610     -3.013827
  H      -2.707587      0.764915     -2.172146
  H       0.767555      0.343391     -2.967403
43
Coordinates from ORCA-job file E -1855.015240964400
  C       3.043661      0.170862     -3.982041
  O       3.425428     -0.042446     -2.647496
  C       2.479015     -0.033446     -1.689936
  C       2.942834     -0.244171     -0.384995
  C       2.033784     -0.248072      0.671543
  O       2.390963     -0.431253      1.955285
  C       3.754850     -0.573682      2.265636
  C       0.661097     -0.058979      0.427571
  S      -0.457864      0.140854      1.838781
  C      -1.750312     -1.023515      1.317141
  C      -1.401102     -2.306775      0.904326
  C      -2.400425     -3.211070      0.554345
  C      -3.735539     -2.813157      0.627113
  Cl     -4.985458     -3.935435      0.178981
  C      -4.083604     -1.533077      1.053729
  C      -3.079690     -0.633244      1.407233
  C      -1.122904      1.656383      1.942643
  C      -1.225822      2.719810      0.867447
  O      -0.818118      3.719107      1.802722
  C      -0.578123      2.760213      2.837722
  C       0.218367      0.166507     -0.882475
  O      -1.103077      0.362522     -1.032579
  C      -1.625761      0.653003     -2.302969
  C       1.121139      0.172764     -1.955133
  H       2.571036      1.158152     -4.111787
  H       3.960019      0.132172     -4.580573
  H       2.349887     -0.610453     -4.332937
  H       4.010525     -0.394495     -0.245527
  H       4.330235      0.312547      1.954138
  H       4.183099     -1.469783      1.788597
  H       3.815748     -0.680003      3.353696
  H      -0.350156     -2.598863      0.843585
  H      -2.154901     -4.221803      0.228251
  H      -5.135243     -1.249552      1.102444
  H      -3.299103      0.382764      1.746003
  H      -2.225894      2.932797      0.444508
  H      -0.506786      2.629402      0.026012
  H       0.491808      2.710501      3.118981
  H      -1.165004      2.997875      3.743204
  H      -1.205499      1.591560     -2.700273
  H      -1.433584     -0.166309     -3.013967
  H      -2.707119      0.766963     -2.171619
  H       0.767694      0.342628     -2.967632
