43
Coordinates from ORCA-job file
  C   3.04366115569804      0.17086153834808     -3.98204055665086
  O   3.42542762474462     -0.04244625550961     -2.64749643608434
  C   2.47901539496756     -0.03344626845043     -1.68993578755519
  C   2.94283390597843     -0.24417110097094     -0.38499468985390
  C   2.03378403272050     -0.24807237999520      0.67154343303301
  O   2.39096324224974     -0.43125310209290      1.95528516007354
  C   3.75484959006259     -0.57368199627416      2.26563614002374
  C   0.66109748282406     -0.05897897609808      0.42757076713588
  S   -0.45786405978045      0.14085431159347      1.83878076025938
  C   -1.75031165590838     -1.02351517963765      1.31714063005795
  C   -1.40110166017232     -2.30677519436138      0.90432630834237
  C   -2.40042464598218     -3.21107043438652      0.55434532876242
  C   -3.73553884606018     -2.81315706880386      0.62711268339078
  Cl  -4.98545835906305     -3.93543496060187      0.17898106990322
  C   -4.08360446791064     -1.53307724900114      1.05372873259546
  C   -3.07968956583933     -0.63324369099324      1.40723316282897
  C   -1.12290449426558      1.65638302301115      1.94264297647143
  C   -1.22582159382647      2.71980954799475      0.86744692016389
  O   -0.81811802908742      3.71910657451749      1.80272233458676
  C   -0.57812252026073      2.76021336057775      2.83772162797033
  C   0.21836651007338      0.16650676417573     -0.88247526205988
  O   -1.10307668583736      0.36252222277598     -1.03257851609169
  C   -1.62576109958041      0.65300269265192     -2.30296862085904
  C   1.12113936050911      0.17276371452228     -1.95513288703917
  H   2.57103567516648      1.15815156994948     -4.11178651085353
  H   3.96001861734769      0.13217214651132     -4.58057309454437
  H   2.34988714088289     -0.61045323205108     -4.33293708712781
  H   4.01052505016745     -0.39449536678474     -0.24552708711952
  H   4.33023518871177      0.31254742430465      1.95413798470067
  H   4.18309855273409     -1.46978326549223      1.78859718621689
  H   3.81574753996706     -0.68000319993151      3.35369580505855
  H   -0.35015578353453     -2.59886300601049      0.84358467742350
  H   -2.15490108728644     -4.22180296296440      0.22825119921953
  H   -5.13524299006156     -1.24955197676563      1.10244440495346
  H   -3.29910321959980      0.38276398306908      1.74600323888749
  H   -2.22589442143755      2.93279725793805      0.44450814179953
  H   -0.50678625960132      2.62940185631998      0.02601182262534
  H   0.49180750022664      2.71050110512473      3.11898086220917
  H   -1.16500400539784      2.99787467450122      3.74320417280779
  H   -1.20549862973203      1.59156033957908     -2.70027346051417
  H   -1.43358429896832     -0.16630883039465     -3.01396670140704
  H   -2.70711903113357      0.76696348603067     -2.17161854081653
  H   0.76769384529537      0.34262810407485     -2.96763229292401
