8
Coordinates from ORCA-job file
  C   0.00804147706316      0.06132127543647      1.11575070566344
  C   -0.97802649991018      0.01995348116503     -0.00697617324001
  O   -0.00751887418024     -0.05984193521739     -1.04786193217595
  C   0.97779381368137     -0.02261829966170     -0.01876770423933
  H   -1.61335369661480      0.92620839322874     -0.04940814806648
  H   -1.65363078370610     -0.85549379544256      0.04796322799455
  H   1.65007474482475      0.85613418095084     -0.06841624490215
  H   1.61661981884204     -0.92576330045943      0.02761626896592
