8
Coordinates from ORCA-job file E -191.522203169947
  C       0.008100      0.061500      1.121100
  C      -0.999400      0.021300      0.004800
  O      -0.007100     -0.054200     -0.987200
  C       0.999400     -0.021500     -0.007200
  H      -1.581600      0.965000     -0.074600
  H      -1.620900     -0.900000      0.028100
  H       1.620400      0.896400     -0.093900
  H       1.581100     -0.968600      0.008800
8
Coordinates from ORCA-job file E -191.525660238049
  C       0.008125      0.062241      1.124927
  C      -0.989647      0.020455     -0.003843
  O      -0.007283     -0.056165     -1.027705
  C       0.989446     -0.021969     -0.015792
  H      -1.586460      0.950032     -0.060109
  H      -1.624842     -0.883518      0.040632
  H       1.624664      0.881141     -0.079510
  H       1.585995     -0.952316      0.021302
8
Coordinates from ORCA-job file E -191.526736484947
  C       0.008141      0.062398      1.119747
  C      -0.981318      0.020000     -0.009166
  O      -0.007485     -0.057975     -1.052030
  C       0.980989     -0.022218     -0.021145
  H      -1.596780      0.937879     -0.049062
  H      -1.634705     -0.869707      0.049730
  H       1.634438      0.868499     -0.068496
  H       1.596719     -0.938977      0.030322
8
Coordinates from ORCA-job file E -191.526981735370
  C       0.008127      0.062035      1.115170
  C      -0.978084      0.019943     -0.009733
  O      -0.007563     -0.058950     -1.055956
  C       0.977752     -0.022278     -0.021703
  H      -1.604916      0.931257     -0.046124
  H      -1.643126     -0.861981      0.051675
  H       1.642210      0.861534     -0.065466
  H       1.605600     -0.931659      0.032038
8
Coordinates from ORCA-job file E -191.527065089251
  C       0.008095      0.061608      1.113203
  C      -0.977201      0.019985     -0.008528
  O      -0.007570     -0.059484     -1.052749
  C       0.976912     -0.022340     -0.020446
  H      -1.611381      0.927029     -0.046760
  H      -1.650281     -0.856952      0.050549
  H       1.648370      0.857046     -0.065959
  H       1.613056     -0.926992      0.030590
8
Coordinates from ORCA-job file E -191.527076027061
  C       0.008070      0.061458      1.114179
  C      -0.977647      0.020002     -0.007472
  O      -0.007542     -0.059582     -1.049397
  C       0.977393     -0.022426     -0.019334
  H      -1.613301      0.926130     -0.048350
  H      -1.652764     -0.855783      0.048946
  H       1.650155      0.856069     -0.067464
  H       1.615636     -0.925967      0.028791
8
Coordinates from ORCA-job file E -191.527076920407
  C       0.008052      0.061394      1.115319
  C      -0.977972      0.019983     -0.007034
  O      -0.007523     -0.059677     -1.048033
  C       0.977734     -0.022527     -0.018850
  H      -1.613520      0.926116     -0.049218
  H      -1.653432     -0.855596      0.048132
  H       1.650297      0.856042     -0.068276
  H       1.616363     -0.925835      0.027860
8
Coordinates from ORCA-job file E -191.527076967210
  C       0.008041      0.061321      1.115751
  C      -0.978026      0.019953     -0.006976
  O      -0.007519     -0.059842     -1.047862
  C       0.977794     -0.022618     -0.018768
  H      -1.613354      0.926208     -0.049408
  H      -1.653631     -0.855494      0.047963
  H       1.650075      0.856134     -0.068416
  H       1.616620     -0.925763      0.027616
