16
Coordinates from ORCA-job file E -325.988677532111
  C      -0.919100      0.469300     -0.941700
  N      -1.928400     -0.353500     -0.254000
  C      -0.887900     -0.852200      0.661100
  C       0.165500     -0.019000     -0.018900
  C       1.044400      0.924800      0.742100
  O       2.208600      0.313000      0.215100
  C       1.440300     -0.612800     -0.533300
  H      -1.125400      1.559700     -0.845800
  H      -0.784100      0.131400     -1.992000
  H      -2.564500      0.283000      0.283200
  H      -0.735100     -1.944900      0.526400
  H      -1.075500     -0.553900      1.717800
  H       0.961400      1.981100      0.405000
  H       0.989400      0.793900      1.844900
  H       1.591200     -0.466100     -1.625100
  H       1.619200     -1.653500     -0.184900
16
Coordinates from ORCA-job file E -325.999098293995
  C      -0.949700      0.482313     -0.955284
  N      -1.966510     -0.348932     -0.249338
  C      -0.918043     -0.861921      0.678433
  C       0.160705     -0.018174     -0.018243
  C       1.073011      0.938294      0.754250
  O       2.256856      0.316927      0.218601
  C       1.466282     -0.619926     -0.541085
  H      -1.140258      1.560966     -0.899775
  H      -0.824458      0.175191     -1.999928
  H      -2.616724      0.243541      0.251245
  H      -0.774669     -1.943678      0.576184
  H      -1.088431     -0.601869      1.730297
  H       1.001953      1.991970      0.454128
  H       1.028437      0.840658      1.846847
  H       1.631943     -0.501756     -1.619416
  H       1.659609     -1.653304     -0.227017
16
Coordinates from ORCA-job file E -325.999569624266
  C      -0.951246      0.494035     -0.946817
  N      -1.953703     -0.386613     -0.280593
  C      -0.919717     -0.851060      0.688634
  C       0.160991     -0.010937     -0.012233
  C       1.091526      0.936309      0.752638
  O       2.265769      0.303487      0.206987
  C       1.458496     -0.625659     -0.545985
  H      -1.160460      1.567918     -0.856847
  H      -0.810349      0.233927     -2.001689
  H      -2.656580      0.168932      0.190443
  H      -0.759785     -1.933539      0.635158
  H      -1.109704     -0.557415      1.729287
  H       1.027125      1.991807      0.457092
  H       1.053830      0.842381      1.845930
  H       1.617944     -0.511835     -1.625654
  H       1.645863     -1.661438     -0.236451
16
Coordinates from ORCA-job file E -326.000259006739
  C      -0.955038      0.503783     -0.941005
  N      -1.943293     -0.394498     -0.287051
  C      -0.923402     -0.842951      0.697620
  C       0.164414     -0.015265     -0.015981
  C       1.101545      0.931989      0.749516
  O       2.277030      0.297671      0.203277
  C       1.465901     -0.631206     -0.551234
  H      -1.161776      1.576382     -0.830624
  H      -0.816358      0.284791     -2.007376
  H      -2.717434      0.104718      0.138875
  H      -0.764807     -1.928845      0.688996
  H      -1.111026     -0.527206      1.732396
  H       1.039611      1.990439      0.463118
  H       1.065555      0.846458      1.843814
  H       1.625721     -0.525356     -1.632091
  H       1.653356     -1.670606     -0.252351
16
Coordinates from ORCA-job file E -326.000596611499
  C      -0.956392      0.515238     -0.931501
  N      -1.925940     -0.430870     -0.317244
  C      -0.924796     -0.831310      0.707170
  C       0.164302     -0.007073     -0.009228
  C       1.119583      0.929891      0.747602
  O       2.284169      0.283351      0.191443
  C       1.456105     -0.636786     -0.555744
  H      -1.185364      1.579724     -0.784445
  H      -0.803659      0.342877     -2.004068
  H      -2.742506      0.026141      0.074751
  H      -0.751281     -1.913867      0.745625
  H      -1.135663     -0.481129      1.727153
  H       1.065309      1.989468      0.463551
  H       1.091133      0.846614      1.842368
  H       1.608724     -0.533761     -1.637836
  H       1.636275     -1.678208     -0.259697
16
Coordinates from ORCA-job file E -326.000913634983
  C      -0.957868      0.526311     -0.921368
  N      -1.905350     -0.465744     -0.346155
  C      -0.926154     -0.819406      0.716028
  C       0.164585      0.001266     -0.002432
  C       1.137198      0.927903      0.745519
  O       2.290588      0.268584      0.180210
  C       1.446035     -0.642450     -0.560083
  H      -1.210502      1.580349     -0.736736
  H      -0.793216      0.400823     -1.998324
  H      -2.761065     -0.053346      0.009996
  H      -0.739773     -1.896834      0.800840
  H      -1.161747     -0.434963      1.718961
  H       1.091211      1.988266      0.462731
  H       1.116237      0.847174      1.840679
  H       1.591496     -0.541772     -1.643291
  H       1.618327     -1.685860     -0.266674
16
Coordinates from ORCA-job file E -326.001201737566
  C      -0.959445      0.536837     -0.910693
  N      -1.881726     -0.499185     -0.373793
  C      -0.927543     -0.806906      0.724490
  C       0.165122      0.009959      0.004555
  C       1.154513      0.925865      0.743525
  O       2.296248      0.253208      0.169555
  C       1.435402     -0.647947     -0.564433
  H      -1.236754      1.578126     -0.688260
  H      -0.784999      0.457592     -1.990185
  H      -2.772804     -0.133768     -0.055456
  H      -0.730453     -1.877525      0.854930
  H      -1.188999     -0.388301      1.708003
  H       1.117442      1.986747      0.461225
  H       1.140890      0.847584      1.839001
  H       1.573753     -0.548580     -1.648612
  H       1.599353     -1.693406     -0.273951
16
Coordinates from ORCA-job file E -326.001447145928
  C      -0.960951      0.546782     -0.899438
  N      -1.854882     -0.530892     -0.399976
  C      -0.928853     -0.793952      0.732548
  C       0.165965      0.019460      0.012177
  C       1.171761      0.924087      0.741792
  O       2.301007      0.236864      0.159716
  C       1.423713     -0.653191     -0.568660
  H      -1.264115      1.572903     -0.639247
  H      -0.778810      0.512248     -1.979682
  H      -2.777465     -0.214939     -0.121598
  H      -0.723128     -1.856289      0.907066
  H      -1.217420     -0.341741      1.694262
  H       1.144527      1.985096      0.458736
  H       1.165379      0.848430      1.837513
  H       1.554766     -0.553709     -1.653656
  H       1.578508     -1.700858     -0.281651
16
Coordinates from ORCA-job file E -326.001638274025
  C      -0.962097      0.556335     -0.887575
  N      -1.824557     -0.560319     -0.424413
  C      -0.929668     -0.780845      0.739987
  C       0.167226      0.030514      0.021018
  C       1.189168      0.923095      0.740501
  O       2.304451      0.219535      0.150491
  C       1.410133     -0.658166     -0.572377
  H      -1.293147      1.564388     -0.589765
  H      -0.773894      0.564010     -1.966945
  H      -2.774588     -0.296443     -0.188227
  H      -0.716773     -1.833845      0.955453
  H      -1.247317     -0.296329      1.677422
  H       1.173121      1.983614      0.454757
  H       1.190425      0.850203      1.836385
  H       1.533256     -0.557328     -1.658076
  H       1.554261     -1.708119     -0.288736
16
Coordinates from ORCA-job file E -326.001775463261
  C      -0.961770      0.564211     -0.877219
  N      -1.796111     -0.581374     -0.442295
  C      -0.928822     -0.770159      0.745286
  C       0.169042      0.041795      0.030012
  C       1.203507      0.923609      0.740030
  O       2.305050      0.204801      0.142696
  C       1.396032     -0.662180     -0.574589
  H      -1.319179      1.553620     -0.546803
  H      -0.768906      0.603164     -1.954842
  H      -2.766019     -0.363972     -0.243720
  H      -0.710087     -1.815430      0.989359
  H      -1.273846     -0.259583      1.659630
  H       1.198329      1.982741      0.449101
  H       1.212351      0.852123      1.835884
  H       1.511272     -0.559347     -1.660835
  H       1.529158     -1.713717     -0.291795
16
Coordinates from ORCA-job file E -326.001863370245
  C      -0.959566      0.564336     -0.877284
  N      -1.795127     -0.577217     -0.439173
  C      -0.926511     -0.770743      0.744716
  C       0.169869      0.042327      0.030438
  C       1.201928      0.924428      0.740249
  O       2.302585      0.205317      0.142874
  C       1.394520     -0.662354     -0.574070
  H      -1.319631      1.551316     -0.543640
  H      -0.765525      0.599322     -1.955097
  H      -2.765988     -0.362137     -0.242308
  H      -0.706405     -1.817269      0.983216
  H      -1.274382     -0.258995      1.656952
  H       1.197592      1.982495      0.445870
  H       1.211628      0.851132      1.835892
  H       1.508794     -0.558319     -1.660295
  H       1.526220     -1.713340     -0.288440
16
Coordinates from ORCA-job file E -326.001895861652
  C      -0.957749      0.563681     -0.878359
  N      -1.798777     -0.570564     -0.433928
  C      -0.924796     -0.772335      0.743797
  C       0.170173      0.038859      0.027675
  C       1.197071      0.923730      0.739335
  O       2.300595      0.208015      0.144627
  C       1.397096     -0.662504     -0.573911
  H      -1.316479      1.550188     -0.544565
  H      -0.762747      0.594596     -1.956747
  H      -2.768374     -0.350578     -0.232902
  H      -0.703665     -1.820456      0.977069
  H      -1.271475     -0.261672      1.656126
  H       1.191110      1.980995      0.442459
  H       1.205808      0.848581      1.834756
  H       1.512286     -0.557573     -1.660025
  H       1.529924     -1.712662     -0.285506
16
Coordinates from ORCA-job file E -326.001897097839
  C      -0.957653      0.562939     -0.878706
  N      -1.800493     -0.569784     -0.433296
  C      -0.924752     -0.772854      0.743117
  C       0.170327      0.038570      0.027461
  C       1.196485      0.923878      0.739422
  O       2.300585      0.208607      0.144956
  C       1.397643     -0.662417     -0.573836
  H      -1.315768      1.549926     -0.545930
  H      -0.762187      0.593068     -1.957093
  H      -2.768996     -0.347069     -0.230058
  H      -0.703178     -1.821132      0.975544
  H      -1.270799     -0.263124      1.656110
  H       1.190046      1.981183      0.442683
  H       1.204946      0.848704      1.834846
  H       1.512990     -0.557677     -1.659960
  H       1.530803     -1.712519     -0.285361
