16
Coordinates from ORCA-job file
  C   -0.95765336999772      0.56293931153221     -0.87870581774335
  N   -1.80049291707677     -0.56978368622269     -0.43329601089058
  C   -0.92475164535777     -0.77285358408685      0.74311699326173
  C   0.17032743170046      0.03856997304580      0.02746129354601
  C   1.19648547689694      0.92387841819182      0.73942172055499
  O   2.30058492136337      0.20860717991344      0.14495605778133
  C   1.39764349271523     -0.66241719953057     -0.57383611219707
  H   -1.31576803124443      1.54992586070304     -0.54592970121744
  H   -0.76218721367948      0.59306797297883     -1.95709337941656
  H   -2.76899573777651     -0.34706906099756     -0.23005818436215
  H   -0.70317758114449     -1.82113185097157      0.97554436350581
  H   -1.27079948714238     -0.26312432406346      1.65611026865967
  H   1.19004591418160      1.98118300391628      0.44268253266245
  H   1.20494584984928      0.84870406728641      1.83484637092364
  H   1.51299007684724     -0.55767692419469     -1.65995981228259
  H   1.53080281986544     -1.71251915750044     -0.28536058278588
