45
Coordinates from ORCA-job file E -1359.524415246133
  C       5.666100     -0.007800     -0.124900
  O       4.644200     -0.023100     -1.116500
  C       3.269500      0.044600     -0.842600
  C       2.765500      0.137400      0.466400
  C       1.378600      0.204000      0.696500
  O       0.848100      0.315300      1.991800
  C       1.622100      0.354700      3.185800
  C       0.496100      0.167800     -0.397300
  S      -1.244700      0.241500     -0.138600
  C      -1.949900     -1.276900      0.384900
  C      -2.662800     -2.060100     -0.531200
  C      -3.230100     -3.272100     -0.124900
  C      -3.089000     -3.702100      1.198100
  C      -2.382500     -2.919000      2.116200
  C      -1.814300     -1.706800      1.711700
  C      -1.798600      1.671000      0.783600
  C      -1.477700      2.967800      0.048400
  C      -2.961800      3.217000     -0.168100
  C      -3.286300      1.929200      0.572100
  C       0.990800      0.081700     -1.709000
  O       0.077200      0.057500     -2.776100
  C       0.440100     -0.029000     -4.150000
  C       2.380000      0.019600     -1.919400
  H       6.655100     -0.074200     -0.622700
  H       5.622600      0.939100      0.453800
  H       5.551500     -0.878100      0.555300
  H       3.449400      0.161800      1.301300
  H       0.939600      0.440200      4.055900
  H       2.296400      1.236900      3.175000
  H       2.213100     -0.579800      3.288600
  H      -2.775800     -1.733500     -1.557500
  H      -3.778800     -3.877400     -0.834800
  H      -3.528800     -4.639800      1.512200
  H      -2.277800     -3.249700      3.141400
  H      -1.281300     -1.103400      2.433500
  H      -0.923500      2.836300     -0.907400
  H      -1.019300      3.717200      0.728700
  H      -3.248000      3.174100     -1.241800
  H      -3.327100      4.122000      0.364700
  H      -3.806700      2.116900      1.535700
  H      -3.800700      1.183700     -0.074000
  H       0.995000     -0.972000     -4.339700
  H       1.060800      0.845900     -4.436800
  H      -0.480900     -0.028800     -4.768200
  H       2.784700     -0.049600     -2.920000
45
Coordinates from ORCA-job file E -1359.550405644870
  C       5.537527     -0.031455     -0.081855
  O       4.579495     -0.034455     -1.120667
  C       3.240785      0.035395     -0.851981
  C       2.737469      0.113141      0.454126
  C       1.352924      0.182457      0.660943
  O       0.814043      0.266776      1.909255
  C       1.621257      0.283311      3.067012
  C       0.471125      0.168172     -0.435008
  S      -1.280021      0.256417     -0.218399
  C      -1.944196     -1.264610      0.377283
  C      -2.658598     -2.076493     -0.507955
  C      -3.198423     -3.284717     -0.059017
  C      -3.025644     -3.677960      1.272750
  C      -2.315226     -2.860611      2.158893
  C      -1.774948     -1.651384      1.713540
  C      -1.805655      1.655114      0.761926
  C      -1.474130      2.977111      0.044154
  C      -2.983129      3.238933     -0.142024
  C      -3.312992      1.911816      0.572413
  C       0.988547      0.092759     -1.739716
  O       0.106092      0.087185     -2.781350
  C       0.552497      0.015762     -4.119903
  C       2.371360      0.026371     -1.943854
  H       6.533975     -0.095998     -0.545580
  H       5.477612      0.904385      0.505920
  H       5.397374     -0.903060      0.585676
  H       3.417272      0.121703      1.301875
  H       0.950109      0.353047      3.936586
  H       2.293193      1.162114      3.063758
  H       2.216391     -0.646739      3.146427
  H      -2.791052     -1.768910     -1.545220
  H      -3.754419     -3.920003     -0.748270
  H      -3.447786     -4.621111      1.620906
  H      -2.185720     -3.164863      3.197793
  H      -1.234528     -1.007486      2.405375
  H      -0.930077      2.880250     -0.918121
  H      -0.988797      3.705036      0.723293
  H      -3.285908      3.235331     -1.203127
  H      -3.341705      4.129764      0.404614
  H      -3.830713      2.058501      1.539852
  H      -3.847663      1.190203     -0.079617
  H       1.113480     -0.921371     -4.298205
  H       1.187121      0.886849     -4.370236
  H      -0.337436      0.026426     -4.767917
  H       2.789219     -0.033101     -2.946251
45
Coordinates from ORCA-job file E -1359.561656195877
  C       5.467053     -0.053359     -0.053717
  O       4.542660     -0.042445     -1.117510
  C       3.221842      0.026444     -0.854330
  C       2.704045      0.087408      0.446959
  C       1.315362      0.157000      0.627788
  O       0.752466      0.216284      1.841407
  C       1.553028      0.219890      2.998567
  C       0.444645      0.163274     -0.482467
  S      -1.318457      0.265610     -0.330396
  C      -1.934794     -1.253361      0.357076
  C      -2.639123     -2.109254     -0.491242
  C      -3.148319     -3.309667      0.011067
  C      -2.952802     -3.645753      1.354779
  C      -2.252060     -2.778782      2.201846
  C      -1.743330     -1.576679      1.705823
  C      -1.798888      1.615277      0.729116
  C      -1.453973      2.967302      0.053640
  C      -2.975599      3.256684     -0.092793
  C      -3.316417      1.887760      0.563580
  C       0.989590      0.101210     -1.782746
  O       0.125278      0.114126     -2.813372
  C       0.612091      0.062069     -4.134921
  C       2.373994      0.033153     -1.966328
  H       6.467365     -0.113811     -0.503056
  H       5.400804      0.871088      0.547844
  H       5.316668     -0.929050      0.603174
  H       3.368632      0.081310      1.305394
  H       0.865288      0.273300      3.852769
  H       2.219483      1.100147      3.021972
  H       2.156428     -0.702802      3.077048
  H      -2.783532     -1.836281     -1.539220
  H      -3.699688     -3.983943     -0.648614
  H      -3.352172     -4.585700      1.744679
  H      -2.106567     -3.039688      3.253295
  H      -1.212404     -0.881727      2.356763
  H      -0.923293      2.920677     -0.917586
  H      -0.934267      3.659352      0.740918
  H      -3.297143      3.315144     -1.143204
  H      -3.321844      4.128560      0.485358
  H      -3.832622      1.978366      1.535559
  H      -3.878208      1.208249     -0.107660
  H       1.176407     -0.869332     -4.320716
  H       1.253967      0.931456     -4.363174
  H      -0.265985      0.084832     -4.794005
  H       2.814490     -0.014337     -2.959267
45
Coordinates from ORCA-job file E -1359.567284747967
  C       5.445122     -0.047393     -0.052402
  O       4.526854     -0.033647     -1.121782
  C       3.206126      0.025561     -0.861277
  C       2.675087      0.072889      0.434624
  C       1.282389      0.132723      0.601712
  O       0.708605      0.173739      1.807327
  C       1.498300      0.187552      2.971980
  C       0.420388      0.146392     -0.519656
  S      -1.355305      0.256858     -0.434996
  C      -1.935626     -1.255341      0.333005
  C      -2.581915     -2.173484     -0.495953
  C      -3.073394     -3.362860      0.049746
  C      -2.917644     -3.621746      1.414472
  C      -2.279390     -2.687627      2.240059
  C      -1.790316     -1.495444      1.702999
  C      -1.788680      1.551910      0.702891
  C      -1.410893      2.934429      0.096651
  C      -2.929345      3.274052     -0.020975
  C      -3.304424      1.869005      0.545017
  C       0.985747      0.097176     -1.816858
  O       0.126342      0.117862     -2.849881
  C       0.622362      0.086100     -4.169088
  C       2.371703      0.036745     -1.985321
  H       6.445013     -0.097979     -0.502429
  H       5.374048      0.869299      0.559245
  H       5.301109     -0.927236      0.599289
  H       3.329182      0.062997      1.300601
  H       0.795932      0.226194      3.814376
  H       2.148584      1.078439      3.010033
  H       2.119647     -0.721527      3.058460
  H      -2.691852     -1.953280     -1.561415
  H      -3.580785     -4.087475     -0.593392
  H      -3.303285     -4.553355      1.839286
  H      -2.170318     -2.887883      3.310075
  H      -1.318817     -0.737484      2.327289
  H      -0.882741      2.944674     -0.876365
  H      -0.857483      3.575089      0.806461
  H      -3.255661      3.416433     -1.061480
  H      -3.258683      4.122118      0.599705
  H      -3.833341      1.898335      1.513349
  H      -3.892121      1.251544     -0.162457
  H       1.194058     -0.837080     -4.368498
  H       1.260704      0.959946     -4.386613
  H      -0.255611      0.112580     -4.827151
  H       2.830427      0.000202     -2.970564
45
Coordinates from ORCA-job file E -1359.570268080618
  C       5.442115     -0.018689     -0.085202
  O       4.519000     -0.001670     -1.150738
  C       3.198189      0.039312     -0.880157
  C       2.672286      0.062141      0.416687
  C       1.278814      0.103530      0.593943
  O       0.719123      0.109148      1.806375
  C       1.520485      0.123758      2.963041
  C       0.410037      0.127238     -0.522619
  S      -1.376283      0.235301     -0.471989
  C      -1.949840     -1.272094      0.342944
  C      -2.473157     -2.265315     -0.487024
  C      -2.963579     -3.444976      0.081417
  C      -2.929700     -3.615393      1.467646
  C      -2.420051     -2.601955      2.289879
  C      -1.934206     -1.418799      1.731127
  C      -1.801068      1.509774      0.691082
  C      -1.370908      2.904906      0.142376
  C      -2.875031      3.295428      0.000029
  C      -3.304100      1.877025      0.488550
  C       0.975418      0.099815     -1.823871
  O       0.108137      0.126816     -2.852538
  C       0.598838      0.123632     -4.174589
  C       2.359378      0.056061     -2.001339
  H       6.439626     -0.051580     -0.542325
  H       5.364350      0.887823      0.540810
  H       5.312695     -0.907695      0.557232
  H       3.329475      0.045344      1.280255
  H       0.823541      0.135272      3.810935
  H       2.152063      1.027737      3.009722
  H       2.163760     -0.771285      3.032919
  H      -2.487031     -2.108032     -1.569352
  H      -3.376252     -4.228739     -0.560369
  H      -3.314798     -4.538117      1.911976
  H      -2.412795     -2.732609      3.376177
  H      -1.575746     -0.588935      2.339351
  H      -0.813071      2.947762     -0.812829
  H      -0.808319      3.506550      0.879354
  H      -3.170288      3.501374     -1.039900
  H      -3.204670      4.131176      0.637361
  H      -3.877533      1.870778      1.432126
  H      -3.892133      1.309740     -0.259962
  H       1.181476     -0.788056     -4.394137
  H       1.227024      1.007466     -4.381210
  H      -0.284071      0.151181     -4.826123
  H       2.818905      0.037853     -2.986941
45
Coordinates from ORCA-job file E -1359.572584138052
  C       5.408957     -0.009000     -0.077606
  O       4.496417      0.041089     -1.152553
  C       3.165985      0.057018     -0.899551
  C       2.622411      0.018944      0.388411
  C       1.225852      0.037959      0.552451
  O       0.647848     -0.034092      1.761349
  C       1.424218     -0.064734      2.935479
  C       0.374811      0.105589     -0.570153
  S      -1.414160      0.206037     -0.533170
  C      -1.940205     -1.284427      0.361187
  C      -2.358970     -2.369184     -0.412344
  C      -2.811241     -3.528566      0.225478
  C      -2.843204     -3.584555      1.621556
  C      -2.438008     -2.479007      2.381315
  C      -1.990641     -1.315894      1.752958
  C      -1.810817      1.484622      0.639042
  C      -1.329533      2.878037      0.132695
  C      -2.811884      3.326040     -0.016875
  C      -3.294500      1.912077      0.414220
  C       0.954609      0.132249     -1.865909
  O       0.096559      0.191903     -2.909537
  C       0.598910      0.250302     -4.227098
  C       2.339916      0.109628     -2.029809
  H       6.413606     -0.011969     -0.522058
  H       5.311794      0.870437      0.584353
  H       5.281159     -0.925211      0.526848
  H       3.267847     -0.031675      1.259415
  H       0.711005     -0.107718      3.769557
  H       2.039945      0.846230      3.040066
  H       2.081330     -0.952171      2.973920
  H      -2.323846     -2.297043     -1.502773
  H      -3.144945     -4.383563     -0.368212
  H      -3.199011     -4.489502      2.121338
  H      -2.482875     -2.522672      3.473010
  H      -1.717429     -0.408767      2.297539
  H      -0.755256      2.933031     -0.812556
  H      -0.749669      3.443408      0.886580
  H      -3.086315      3.583531     -1.052718
  H      -3.126136      4.155983      0.637383
  H      -3.896598      1.891001      1.341100
  H      -3.889472      1.389172     -0.362129
  H       1.194886     -0.645198     -4.478051
  H       1.220250      1.149037     -4.388129
  H      -0.277501      0.296036     -4.887701
  H       2.814001      0.135588     -3.008218
45
Coordinates from ORCA-job file E -1359.574803727399
  C       5.382523      0.003848     -0.094184
  O       4.472012      0.076651     -1.169128
  C       3.141687      0.070624     -0.917503
  C       2.598854     -0.012084      0.368382
  C       1.202356     -0.011194      0.532639
  O       0.621294     -0.130358      1.735732
  C       1.394319     -0.185343      2.910221
  C       0.353306      0.084854     -0.585302
  S      -1.433105      0.176809     -0.525930
  C      -1.938086     -1.310647      0.397634
  C      -2.221165     -2.460405     -0.342092
  C      -2.654947     -3.609539      0.325848
  C      -2.807027     -3.588031      1.715829
  C      -2.540101     -2.416728      2.436960
  C      -2.110058     -1.264128      1.777493
  C      -1.822551      1.485783      0.619907
  C      -1.282833      2.861974      0.130515
  C      -2.742555      3.360191     -0.054792
  C      -3.282768      1.962465      0.349854
  C       0.929348      0.154492     -1.879596
  O       0.068442      0.239769     -2.918825
  C       0.568124      0.346535     -4.234011
  C       2.314282      0.149213     -2.046121
  H       6.388446      0.025588     -0.534943
  H       5.273223      0.861397      0.594128
  H       5.262780     -0.931948      0.481238
  H       3.243817     -0.083902      1.238359
  H       0.680629     -0.262004      3.741200
  H       1.999023      0.729502      3.042086
  H       2.061644     -1.065986      2.924459
  H      -2.097114     -2.447011     -1.428586
  H      -2.883587     -4.516693     -0.239436
  H      -3.150662     -4.484348      2.239122
  H      -2.679645     -2.401645      3.521562
  H      -1.942464     -0.303092      2.275865
  H      -0.681637      2.900850     -0.798620
  H      -0.700471      3.407319      0.897545
  H      -2.981215      3.638844     -1.094252
  H      -3.048012      4.196773      0.595380
  H      -3.919587      1.952944      1.254039
  H      -3.868908      1.461814     -0.448058
  H       1.171273     -0.535235     -4.514868
  H       1.182054      1.255264     -4.364385
  H      -0.308934      0.407165     -4.892310
  H       2.788098      0.209654     -3.022954
45
Coordinates from ORCA-job file E -1359.576954687694
  C       5.337010      0.017816     -0.097448
  O       4.431179      0.114625     -1.173921
  C       3.101099      0.086330     -0.928994
  C       2.555371     -0.041248      0.352528
  C       1.158739     -0.057997      0.509545
  O       0.566593     -0.213495      1.701428
  C       1.328823     -0.284075      2.881008
  C       0.316466      0.063036     -0.608215
  S      -1.461674      0.139023     -0.513491
  C      -1.926045     -1.355655      0.434232
  C      -2.107871     -2.549748     -0.264087
  C      -2.513458     -3.688628      0.437285
  C      -2.743577     -3.610858      1.815786
  C      -2.578535     -2.395212      2.491306
  C      -2.172682     -1.253405      1.797607
  C      -1.843517      1.488681      0.591212
  C      -1.216677      2.835783      0.136903
  C      -2.638920      3.405506     -0.105896
  C      -3.262872      2.034828      0.257340
  C       0.890455      0.179801     -1.896101
  O       0.028291      0.291394     -2.929846
  C       0.526421      0.447631     -4.240220
  C       2.276045      0.192380     -2.058414
  H       6.345232      0.064060     -0.530632
  H       5.214116      0.852104      0.616634
  H       5.223561     -0.937281      0.446595
  H       3.196502     -0.132272      1.223794
  H       0.610227     -0.387163      3.704623
  H       1.922658      0.634265      3.035524
  H       2.004739     -1.158446      2.882145
  H      -1.930847     -2.581297     -1.343279
  H      -2.662612     -4.632870     -0.092793
  H      -3.067702     -4.499520      2.364107
  H      -2.774314     -2.338910      3.566092
  H      -2.063782     -0.255480      2.244853
  H      -0.574808      2.847290     -0.765123
  H      -0.639268      3.349516      0.929498
  H      -2.818561      3.710652     -1.149959
  H      -2.931864      4.249328      0.540725
  H      -3.947032      2.046890      1.126935
  H      -3.828502      1.564079     -0.573178
  H       1.136102     -0.419718     -4.550495
  H       1.133369      1.365101     -4.337327
  H      -0.350133      0.524406     -4.897169
  H       2.752357      0.288755     -3.031015
45
Coordinates from ORCA-job file E -1359.578960021638
  C       5.292143      0.035087     -0.109747
  O       4.385544      0.149049     -1.183592
  C       3.057106      0.103087     -0.939223
  C       2.512673     -0.058390      0.339782
  C       1.116199     -0.088976      0.493671
  O       0.520320     -0.266365      1.679033
  C       1.278727     -0.347890      2.860193
  C       0.274324      0.046253     -0.624780
  S      -1.498163      0.102112     -0.511226
  C      -1.919329     -1.394010      0.464262
  C      -2.005179     -2.619532     -0.194657
  C      -2.384458     -3.750163      0.533957
  C      -2.687463     -3.632573      1.896005
  C      -2.618218     -2.385836      2.529560
  C      -2.236488     -1.252296      1.808952
  C      -1.881452      1.473600      0.559927
  C      -1.149347      2.786926      0.178175
  C      -2.519614      3.440222     -0.143973
  C      -3.242012      2.100170      0.144856
  C       0.846225      0.201128     -1.907603
  O      -0.018464      0.331115     -2.934666
  C       0.477194      0.524974     -4.240816
  C       2.232099      0.229405     -2.067077
  H       6.299567      0.099871     -0.541919
  H       5.162726      0.851513      0.623359
  H       5.187119     -0.933301      0.411755
  H       3.153360     -0.161874      1.210071
  H       0.558013     -0.466502      3.679627
  H       1.867164      0.571346      3.028004
  H       1.958800     -1.218850      2.852380
  H      -1.776028     -2.684790     -1.262843
  H      -2.457068     -4.721444      0.037237
  H      -2.992571     -4.516168      2.463477
  H      -2.867340     -2.300245      3.591623
  H      -2.183789     -0.230323      2.213792
  H      -0.450366      2.773842     -0.679883
  H      -0.596284      3.254361      1.015726
  H      -2.612338      3.779594     -1.188586
  H      -2.807110      4.284533      0.504066
  H      -3.985418      2.133931      0.963674
  H      -3.768738      1.672040     -0.732784
  H       1.092528     -0.329649     -4.573990
  H       1.077210      1.449001     -4.314401
  H      -0.400365      0.612311     -4.894748
  H       2.708665      0.353707     -3.036551
45
Coordinates from ORCA-job file E -1359.581078905087
  C       5.246633      0.036604     -0.123378
  O       4.337500      0.165832     -1.193059
  C       3.011638      0.110194     -0.946955
  C       2.468678     -0.074580      0.331099
  C       1.072274     -0.110474      0.480913
  O       0.471435     -0.293529      1.660693
  C       1.225535     -0.381462      2.844649
  C       0.229570      0.033774     -0.642537
  S      -1.534706      0.074677     -0.511926
  C      -1.907434     -1.425952      0.486823
  C      -1.899632     -2.671594     -0.135173
  C      -2.252075     -3.795841      0.616576
  C      -2.624164     -3.652819      1.959172
  C      -2.647590     -2.385942      2.554555
  C      -2.290917     -1.258664      1.811819
  C      -1.918953      1.463909      0.517477
  C      -1.093826      2.740998      0.225842
  C      -2.409174      3.471353     -0.166109
  C      -3.217330      2.161946      0.038753
  C       0.801127      0.218147     -1.919539
  O      -0.065628      0.364630     -2.938564
  C       0.428558      0.587067     -4.240771
  C       2.187897      0.254717     -2.073525
  H       6.251983      0.112338     -0.557872
  H       5.117601      0.839872      0.623796
  H       5.147247     -0.940832      0.381564
  H       3.108957     -0.187047      1.200613
  H       0.500738     -0.502472      3.659831
  H       1.815785      0.535154      3.017719
  H       1.902532     -1.254385      2.836311
  H      -1.620328     -2.762673     -1.189917
  H      -2.249241     -4.786097      0.151881
  H      -2.909097     -4.534274      2.540976
  H      -2.946427     -2.281714      3.602511
  H      -2.287856     -0.220362      2.179022
  H      -0.343432      2.705747     -0.585943
  H      -0.574490      3.160780      1.109079
  H      -2.416360      3.844748     -1.202515
  H      -2.694114      4.308353      0.491569
  H      -4.010813      2.215591      0.807155
  H      -3.698037      1.774100     -0.882167
  H       1.045437     -0.258568     -4.592595
  H       1.025299      1.514175     -4.296279
  H      -0.450032      0.685125     -4.891307
  H       2.665332      0.399449     -3.040169
45
Coordinates from ORCA-job file E -1359.583180042390
  C       5.206160      0.025774     -0.140099
  O       4.294491      0.173340     -1.205081
  C       2.970642      0.113076     -0.956448
  C       2.429285     -0.092342      0.320494
  C       1.033021     -0.129649      0.467278
  O       0.428817     -0.319073      1.641995
  C       1.180381     -0.416788      2.827372
  C       0.188392      0.026072     -0.660091
  S      -1.569658      0.055016     -0.516681
  C      -1.893705     -1.447028      0.508769
  C      -1.790428     -2.706084     -0.072277
  C      -2.116746     -3.822595      0.702848
  C      -2.560153     -3.659783      2.021258
  C      -2.678439     -2.379133      2.574306
  C      -2.345786     -1.259367      1.809914
  C      -1.960029      1.455261      0.467882
  C      -1.060891      2.697685      0.283348
  C      -2.317715      3.494767     -0.177300
  C      -3.193041      2.213537     -0.072799
  C       0.760439      0.236335     -1.931627
  O      -0.108075      0.398846     -2.943605
  C       0.385762      0.645150     -4.241947
  C       2.148085      0.276860     -2.080866
  H       6.209540      0.108555     -0.577356
  H       5.081021      0.816255      0.620925
  H       5.108920     -0.959835      0.348688
  H       3.069623     -0.215868      1.188533
  H       0.452186     -0.539489      3.638993
  H       1.774776      0.495642      3.005972
  H       1.852445     -1.293104      2.816339
  H      -1.459027     -2.819063     -1.110039
  H      -2.037375     -4.826240      0.273861
  H      -2.825013     -4.538334      2.617293
  H      -3.029317     -2.260326      3.604804
  H      -2.395521     -0.208444      2.137807
  H      -0.258227      2.647827     -0.475232
  H      -0.589659      3.071933      1.212878
  H      -2.235746      3.903131     -1.196577
  H      -2.613907      4.317884      0.491996
  H      -4.037465      2.280886      0.637346
  H      -3.614878      1.865700     -1.037078
  H       1.001973     -0.193702     -4.610071
  H       0.982059      1.573081     -4.281563
  H      -0.493524      0.754784     -4.889319
  H       2.626406      0.438846     -3.044742
45
Coordinates from ORCA-job file E -1359.585397057485
  C       5.174466     -0.004867     -0.162980
  O       4.259468      0.158614     -1.222675
  C       2.937440      0.103820     -0.968539
  C       2.398684     -0.108386      0.309795
  C       1.002673     -0.138152      0.456017
  O       0.396686     -0.318753      1.629176
  C       1.147580     -0.419113      2.815688
  C       0.153611      0.024091     -0.675506
  S      -1.600293      0.050293     -0.520632
  C      -1.877951     -1.456552      0.524359
  C      -1.681824     -2.718187     -0.020793
  C      -1.986412     -3.830359      0.770104
  C      -2.500798     -3.662203      2.061295
  C      -2.710344     -2.377946      2.578187
  C      -2.398383     -1.262244      1.800106
  C      -2.002496      1.450237      0.415367
  C      -1.054936      2.663348      0.361612
  C      -2.254235      3.516269     -0.162336
  C      -3.172977      2.256716     -0.176805
  C       0.726724      0.247796     -1.943591
  O      -0.143292      0.422210     -2.949543
  C       0.351492      0.677950     -4.246181
  C       2.115429      0.282976     -2.090112
  H       6.175518      0.075249     -0.605581
  H       5.059863      0.779235      0.605937
  H       5.074064     -0.994016      0.317542
  H       3.040330     -0.238979      1.175865
  H       0.416387     -0.530802      3.625932
  H       1.752038      0.487123      2.989521
  H       1.809200     -1.302932      2.809408
  H      -1.297372     -2.843379     -1.038842
  H      -1.833061     -4.839177      0.373096
  H      -2.747339     -4.541070      2.665177
  H      -3.112913     -2.255508      3.589497
  H      -2.497918     -0.205531      2.097006
  H      -0.199978      2.610419     -0.336708
  H      -0.648059      2.991169      1.337838
  H      -2.083753      3.965411     -1.152318
  H      -2.577856      4.314136      0.523639
  H      -4.066168      2.327435      0.469795
  H      -3.523751      1.951848     -1.182697
  H       0.962068     -0.160701     -4.623337
  H       0.952728      1.602676     -4.278595
  H      -0.528130      0.798413     -4.890811
  H       2.593888      0.451422     -3.053278
45
Coordinates from ORCA-job file E -1359.588042706729
  C       5.148529     -0.020281     -0.188383
  O       4.231530      0.151737     -1.244976
  C       2.909806      0.097766     -0.987377
  C       2.374212     -0.120496      0.291674
  C       0.978758     -0.147003      0.439799
  O       0.373143     -0.321045      1.613910
  C       1.125004     -0.421074      2.800291
  C       0.125464      0.017993     -0.690903
  S      -1.628587      0.043167     -0.523597
  C      -1.867990     -1.465271      0.541615
  C      -1.586531     -2.725537      0.035114
  C      -1.874459     -3.832711      0.840035
  C      -2.456829     -3.662113      2.101240
  C      -2.750966     -2.378730      2.578348
  C      -2.455259     -1.267741      1.787751
  C      -2.045431      1.441707      0.368980
  C      -1.064894      2.620141      0.460826
  C      -2.187717      3.530621     -0.135892
  C      -3.137335      2.301289     -0.286317
  C       0.697038      0.253103     -1.957259
  O      -0.175303      0.436196     -2.959794
  C       0.318541      0.700513     -4.255433
  C       2.085995      0.286771     -2.105388
  H       6.148566      0.059761     -0.633285
  H       5.038389      0.759536      0.585518
  H       5.046952     -1.011861      0.286841
  H       3.018023     -0.254671      1.155655
  H       0.393421     -0.524112      3.611227
  H       1.736507      0.481414      2.968076
  H       1.779651     -1.309977      2.797347
  H      -1.150040     -2.858364     -0.960624
  H      -1.653618     -4.841920      0.476680
  H      -2.688854     -4.539182      2.713475
  H      -3.204324     -2.254860      3.567770
  H      -2.606228     -0.208672      2.053842
  H      -0.151927      2.560649     -0.159515
  H      -0.740883      2.901406      1.481545
  H      -1.915725      4.016885     -1.084499
  H      -2.551322      4.305619      0.555902
  H      -4.083721      2.380181      0.278798
  H      -3.400938      2.042928     -1.331047
  H       0.925900     -0.137085     -4.640000
  H       0.922574      1.623526     -4.281772
  H      -0.561734      0.828549     -4.897641
  H       2.562714      0.461250     -3.068456
45
Coordinates from ORCA-job file E -1359.590633496777
  C       5.189876     -0.091133     -0.236649
  O       4.266308      0.087098     -1.288044
  C       2.937262      0.059036     -1.017827
  C       2.411152     -0.135970      0.266345
  C       1.018085     -0.137686      0.435731
  O       0.434034     -0.276698      1.634771
  C       1.205552     -0.374424      2.811232
  C       0.145226      0.021467     -0.676899
  S      -1.640542      0.083187     -0.535552
  C      -1.880457     -1.426606      0.544842
  C      -1.548243     -2.682965      0.055511
  C      -1.834418     -3.797787      0.855839
  C      -2.459987     -3.638600      2.093180
  C      -2.804029     -2.359180      2.555346
  C      -2.514080     -1.243610      1.771396
  C      -2.114527      1.423841      0.303060
  C      -1.195964      2.608362      0.603369
  C      -2.264103      3.541845     -0.059092
  C      -3.161567      2.306162     -0.392606
  C       0.715423      0.240564     -1.954137
  O      -0.160686      0.431664     -2.967200
  C       0.330974      0.677077     -4.269515
  C       2.102727      0.251811     -2.122846
  H       6.188725     -0.033939     -0.690373
  H       5.100067      0.698366      0.531234
  H       5.073961     -1.075668      0.251536
  H       3.067328     -0.267989      1.121161
  H       0.484085     -0.443856      3.635607
  H       1.841969      0.516379      2.951204
  H       1.839265     -1.278838      2.811955
  H      -1.072874     -2.810808     -0.920541
  H      -1.574233     -4.801496      0.505478
  H      -2.687833     -4.519204      2.700049
  H      -3.293427     -2.245409      3.526871
  H      -2.713448     -0.200831      2.049701
  H      -0.214740      2.599166      0.090213
  H      -1.003083      2.835849      1.669138
  H      -1.905372      4.100430     -0.936992
  H      -2.722332      4.252569      0.646330
  H      -4.160847      2.347273      0.080498
  H      -3.316931      2.119997     -1.473874
  H       0.924219     -0.173378     -4.649566
  H       0.950379      1.590091     -4.307611
  H      -0.551405      0.813762     -4.908810
  H       2.568610      0.410078     -3.093361
45
Coordinates from ORCA-job file E -1359.594449643099
  C       5.164186     -0.073171     -0.253247
  O       4.247061      0.103391     -1.310259
  C       2.914064      0.068053     -1.048307
  C       2.387579     -0.131010      0.232909
  C       0.995267     -0.141816      0.405985
  O       0.407276     -0.282126      1.607437
  C       1.174375     -0.373892      2.785136
  C       0.130535      0.007465     -0.693140
  S      -1.657028      0.051750     -0.528887
  C      -1.871355     -1.453711      0.570399
  C      -1.466509     -2.707915      0.126217
  C      -1.745412     -3.819730      0.932426
  C      -2.439786     -3.659683      2.133970
  C      -2.855819     -2.385097      2.546993
  C      -2.571638     -1.272710      1.754839
  C      -2.146232      1.424522      0.296534
  C      -1.216903      2.568637      0.701346
  C      -2.173046      3.558900     -0.025775
  C      -3.074086      2.375946     -0.477302
  C       0.689200      0.235182     -1.971304
  O      -0.192351      0.426285     -2.985123
  C       0.289114      0.681899     -4.288276
  C       2.073930      0.257703     -2.151420
  H       6.168381     -0.011407     -0.695180
  H       5.061675      0.714877      0.515316
  H       5.045361     -1.060011      0.230635
  H       3.043586     -0.259071      1.088589
  H       0.454819     -0.445461      3.611262
  H       1.807407      0.520561      2.923509
  H       1.811751     -1.276653      2.786660
  H      -0.939005     -2.832507     -0.823178
  H      -1.427791     -4.817378      0.616990
  H      -2.665578     -4.534252      2.749080
  H      -3.398088     -2.270553      3.489408
  H      -2.825599     -0.230071      2.001851
  H      -0.192868      2.531233      0.280986
  H      -1.109205      2.764785      1.786064
  H      -1.711426      4.127965     -0.848854
  H      -2.667808      4.275107      0.650363
  H      -4.116235      2.447561     -0.108075
  H      -3.130398      2.222043     -1.574212
  H       0.886650     -0.163804     -4.673757
  H       0.902997      1.599439     -4.321332
  H      -0.595840      0.816819     -4.924868
  H       2.534892      0.421905     -3.122308
45
Coordinates from ORCA-job file E -1359.597292422779
  C       5.123152     -0.062545     -0.253318
  O       4.210088      0.071251     -1.318160
  C       2.883894      0.054079     -1.057314
  C       2.353054     -0.085484      0.232440
  C       0.959481     -0.083856      0.394246
  O       0.356996     -0.159311      1.590539
  C       1.118099     -0.211654      2.773140
  C       0.105364      0.012513     -0.718921
  S      -1.672146      0.066714     -0.533293
  C      -1.861538     -1.464234      0.530011
  C      -1.433656     -2.703714      0.070851
  C      -1.696770     -3.830985      0.857812
  C      -2.393818     -3.702183      2.064384
  C      -2.828943     -2.442814      2.496358
  C      -2.563524     -1.314379      1.718350
  C      -2.152060      1.448231      0.293098
  C      -1.225120      2.524056      0.853027
  C      -2.085895      3.589880      0.114177
  C      -2.993607      2.474097     -0.478178
  C       0.662720      0.188237     -1.999073
  O      -0.217492      0.331324     -3.009187
  C       0.262550      0.524615     -4.320866
  C       2.048258      0.199016     -2.174017
  H       6.127342     -0.027128     -0.695845
  H       5.025077      0.760343      0.477435
  H       4.997908     -1.025358      0.273935
  H       3.003176     -0.175251      1.097555
  H       0.396081     -0.234373      3.599309
  H       1.766186      0.676304      2.874721
  H       1.739079     -1.124163      2.817264
  H      -0.897064     -2.806083     -0.877575
  H      -1.361567     -4.818237      0.526273
  H      -2.604994     -4.589887      2.667221
  H      -3.375311     -2.350711      3.440151
  H      -2.845646     -0.283723      1.980174
  H      -0.174279      2.465768      0.510077
  H      -1.204971      2.647691      1.953461
  H      -1.540056      4.186760     -0.632565
  H      -2.610275      4.277441      0.795589
  H      -4.054161      2.558481     -0.174333
  H      -2.969361      2.390310     -1.581649
  H       0.857861     -0.338736     -4.667289
  H       0.876446      1.439129     -4.397917
  H      -0.622591      0.630335     -4.961268
  H       2.512132      0.318234     -3.150731
45
Coordinates from ORCA-job file E -1359.599740773924
  C       5.124510     -0.018297     -0.284786
  O       4.207053      0.094539     -1.347886
  C       2.881211      0.066881     -1.084488
  C       2.352926     -0.062550      0.206397
  C       0.958219     -0.076868      0.372537
  O       0.360037     -0.159326      1.576952
  C       1.130122     -0.211915      2.753023
  C       0.105190     -0.002575     -0.733589
  S      -1.689496      0.054034     -0.556710
  C      -1.887177     -1.447041      0.528070
  C      -1.395603     -2.682339      0.113779
  C      -1.648450     -3.809587      0.902614
  C      -2.394865     -3.687770      2.080713
  C      -2.889227     -2.438024      2.471463
  C      -2.638869     -1.309259      1.686906
  C      -2.195365      1.438966      0.256880
  C      -1.297077      2.447863      0.971836
  C      -2.031745      3.584913      0.210179
  C      -2.906141      2.545086     -0.545796
  C       0.655908      0.160622     -2.019811
  O      -0.228427      0.278906     -3.032026
  C       0.241244      0.458130     -4.348145
  C       2.039853      0.186021     -2.202719
  H       6.127529      0.021999     -0.729815
  H       5.019475      0.811672      0.437117
  H       5.009667     -0.976019      0.254092
  H       3.005049     -0.136129      1.071448
  H       0.416364     -0.245557      3.586214
  H       1.770094      0.681908      2.858741
  H       1.762030     -1.117491      2.786334
  H      -0.814197     -2.770823     -0.808822
  H      -1.265777     -4.787092      0.596031
  H      -2.598094     -4.571421      2.691991
  H      -3.475316     -2.348838      3.391048
  H      -2.997335     -0.303945      1.937505
  H      -0.217104      2.365090      0.742008
  H      -1.390891      2.505963      2.073172
  H      -1.385930      4.198447     -0.436995
  H      -2.603961      4.259177      0.866059
  H      -3.990280      2.653609     -0.353765
  H      -2.766324      2.532637     -1.641697
  H       0.845973     -0.402364     -4.685787
  H       0.843801      1.378838     -4.442909
  H      -0.648734      0.543733     -4.985237
  H       2.500232      0.296193     -3.182027
45
Coordinates from ORCA-job file E -1359.601248334749
  C       5.132561     -0.010068     -0.319083
  O       4.207014      0.092720     -1.376907
  C       2.880065      0.061840     -1.106172
  C       2.357324     -0.060623      0.187303
  C       0.962611     -0.079960      0.357678
  O       0.370977     -0.172941      1.567143
  C       1.147660     -0.233221      2.739486
  C       0.100996     -0.012746     -0.749179
  S      -1.703909      0.070350     -0.569526
  C      -1.897436     -1.412168      0.525795
  C      -1.351412     -2.637072      0.147917
  C      -1.592699     -3.760925      0.944716
  C      -2.378123     -3.648989      2.097012
  C      -2.925886     -2.411192      2.453264
  C      -2.690027     -1.285396      1.660010
  C      -2.225204      1.442672      0.209783
  C      -1.399224      2.392550      1.072252
  C      -2.040564      3.580797      0.300607
  C      -2.836857      2.595067     -0.605583
  C       0.651378      0.139127     -2.039837
  O      -0.234937      0.244800     -3.056033
  C       0.235009      0.408371     -4.375351
  C       2.035948      0.166875     -2.222641
  H       6.132351      0.030133     -0.772367
  H       5.030994      0.824415      0.398473
  H       5.025034     -0.964298      0.227986
  H       3.013779     -0.128325      1.049624
  H       0.437345     -0.279934      3.575289
  H       1.782040      0.663795      2.853357
  H       1.786231     -1.134420      2.760548
  H      -0.735316     -2.717756     -0.751733
  H      -1.168311     -4.728818      0.663625
  H      -2.568818     -4.530037      2.715509
  H      -3.541068     -2.327011      3.353544
  H      -3.096767     -0.296366      1.894386
  H      -0.302958      2.307107      0.948128
  H      -1.606554      2.389418      2.159209
  H      -1.323181      4.219034     -0.238202
  H      -2.676960      4.225848      0.926861
  H      -3.934508      2.708524     -0.524495
  H      -2.577286      2.642241     -1.678958
  H       0.840302     -0.455660     -4.703655
  H       0.837997      1.327576     -4.482421
  H      -0.655085      0.486350     -5.013885
  H       2.495573      0.268315     -3.203380
45
Coordinates from ORCA-job file E -1359.601502086527
  C       5.165251      0.073365     -0.338082
  O       4.231715      0.124732     -1.392389
  C       2.906891      0.074224     -1.116058
  C       2.387127     -0.018959      0.180531
  C       0.991076     -0.066427      0.351191
  O       0.405280     -0.168369      1.567070
  C       1.191204     -0.225681      2.732640
  C       0.129668     -0.040865     -0.758354
  S      -1.696124      0.074301     -0.596637
  C      -1.943331     -1.362119      0.479092
  C      -1.414309     -2.598704      0.098610
  C      -1.657954     -3.726041      0.884058
  C      -2.421910     -3.613879      2.051961
  C      -2.948954     -2.372602      2.417684
  C      -2.719613     -1.241189      1.627376
  C      -2.240110      1.452851      0.194587
  C      -1.446482      2.345403      1.152138
  C      -2.070534      3.578540      0.440406
  C      -2.817035      2.656351     -0.573993
  C       0.677217      0.071567     -2.055057
  O      -0.210267      0.120271     -3.074179
  C       0.255868      0.238480     -4.398744
  C       2.061097      0.120388     -2.236947
  H       6.161234      0.119710     -0.799483
  H       5.051485      0.927384      0.354397
  H       5.080987     -0.865252      0.239513
  H       3.044715     -0.051216      1.044110
  H       0.488923     -0.295978      3.574193
  H       1.805562      0.684144      2.859325
  H       1.852211     -1.110669      2.739245
  H      -0.801884     -2.667406     -0.804012
  H      -1.248308     -4.694044      0.583733
  H      -2.611136     -4.493964      2.672019
  H      -3.551289     -2.279863      3.325452
  H      -3.157301     -0.279199      1.895123
  H      -0.347464      2.289457      1.062584
  H      -1.694682      2.245288      2.225481
  H      -1.329695      4.247334     -0.024802
  H      -2.737842      4.185008      1.073428
  H      -3.918335      2.741759     -0.532594
  H      -2.509319      2.796555     -1.625084
  H       0.879196     -0.625059     -4.693499
  H       0.840689      1.164147     -4.546230
  H      -0.635485      0.272363     -5.039792
  H       2.522068      0.193862     -3.219911
45
Coordinates from ORCA-job file E -1359.602388955878
  C       5.154214      0.080162     -0.363941
  O       4.222870      0.161572     -1.417991
  C       2.898167      0.081913     -1.142593
  C       2.383225     -0.066443      0.150380
  C       0.989326     -0.133335      0.321975
  O       0.405595     -0.269671      1.532725
  C       1.187546     -0.337933      2.700139
  C       0.122327     -0.071496     -0.781093
  S      -1.704373      0.043670     -0.604453
  C      -1.935109     -1.371996      0.518358
  C      -1.341153     -2.599539      0.217183
  C      -1.583759     -3.697910      1.044464
  C      -2.414227     -3.565177      2.163211
  C      -3.007615     -2.331096      2.444844
  C      -2.775690     -1.228497      1.616583
  C      -2.245953      1.431113      0.146276
  C      -1.509379      2.304389      1.161018
  C      -2.065512      3.551378      0.416505
  C      -2.732827      2.644479     -0.661820
  C       0.666797      0.096827     -2.071534
  O      -0.225120      0.177822     -3.085310
  C       0.240531      0.356854     -4.403588
  C       2.049289      0.163832     -2.256675
  H       6.150352      0.159123     -0.820190
  H       5.026908      0.903099      0.362924
  H       5.081825     -0.882303      0.174700
  H       3.043492     -0.121471      1.010832
  H       0.482103     -0.438836      3.535767
  H       1.786827      0.578899      2.846035
  H       1.862304     -1.212505      2.690857
  H      -0.684807     -2.689530     -0.651776
  H      -1.123745     -4.662385      0.813061
  H      -2.602565     -4.424899      2.811500
  H      -3.657678     -2.222919      3.317488
  H      -3.234498     -0.255138      1.809222
  H      -0.406512      2.234839      1.147911
  H      -1.826749      2.204408      2.216405
  H      -1.286379      4.221934      0.021311
  H      -2.774261      4.158961      1.000427
  H      -3.831691      2.754015     -0.726315
  H      -2.329446      2.778738     -1.681219
  H       0.872686     -0.487279     -4.733210
  H       0.816304      1.293545     -4.510494
  H      -0.650895      0.408577     -5.042990
  H       2.507358      0.280208     -3.236809
45
Coordinates from ORCA-job file E -1359.601937054914
  C       5.141938      0.083838     -0.346572
  O       4.220730      0.115340     -1.412095
  C       2.892906      0.066410     -1.142500
  C       2.371433      0.001903      0.156032
  C       0.978224     -0.039187      0.322008
  O       0.381281     -0.090643      1.529438
  C       1.149564     -0.097453      2.708061
  C       0.116343     -0.046770     -0.787376
  S      -1.696843      0.099694     -0.591318
  C      -1.921460     -1.384404      0.468396
  C      -1.388270     -2.614929      0.087155
  C      -1.650951     -3.738236      0.875465
  C      -2.442818     -3.626847      2.023810
  C      -2.980248     -2.386018      2.382286
  C      -2.724263     -1.258934      1.596599
  C      -2.182386      1.458480      0.207116
  C      -1.438721      2.296493      1.234886
  C      -2.053700      3.559784      0.563992
  C      -2.722085      2.680396     -0.534472
  C       0.665892      0.041704     -2.081321
  O      -0.220670      0.068321     -3.103385
  C       0.255576      0.165293     -4.427459
  C       2.050696      0.087316     -2.262250
  H       6.143236      0.122872     -0.796539
  H       5.019568      0.949787      0.329367
  H       5.051538     -0.844970      0.245802
  H       3.027817     -0.005996      1.021399
  H       0.434455     -0.144805      3.539547
  H       1.756718      0.820566      2.802121
  H       1.813967     -0.978799      2.756116
  H      -0.764540     -2.700435     -0.806331
  H      -1.238121     -4.709724      0.589147
  H      -2.645060     -4.509860      2.635555
  H      -3.600450     -2.296415      3.278685
  H      -3.122657     -0.264152      1.828606
  H      -0.334161      2.253277      1.168351
  H      -1.714440      2.148118      2.296942
  H      -1.307408      4.272413      0.180432
  H      -2.766198      4.110102      1.197762
  H      -3.824977      2.768931     -0.570659
  H      -2.335447      2.855856     -1.556632
  H       0.881622     -0.703259     -4.700330
  H       0.840121      1.089336     -4.583646
  H      -0.630236      0.186605     -5.076119
  H       2.512583      0.138999     -3.245972
45
Coordinates from ORCA-job file E -1359.602741361133
  C       5.160845      0.095429     -0.367348
  O       4.232252      0.155408     -1.425146
  C       2.906566      0.080946     -1.151090
  C       2.390309     -0.038852      0.145427
  C       0.997253     -0.103053      0.315224
  O       0.410010     -0.215486      1.525761
  C       1.187869     -0.263723      2.696956
  C       0.131426     -0.075513     -0.790722
  S      -1.693597      0.062056     -0.605647
  C      -1.932390     -1.371469      0.498446
  C      -1.365577     -2.606057      0.177809
  C      -1.626687     -3.707215      0.995893
  C      -2.447671     -3.571539      2.121220
  C      -3.015978     -2.329857      2.421286
  C      -2.764845     -1.224307      1.603272
  C      -2.208294      1.443774      0.157833
  C      -1.494935      2.294571      1.201699
  C      -2.099806      3.549937      0.508058
  C      -2.713287      2.663994     -0.617763
  C       0.676425      0.063053     -2.082903
  O      -0.214738      0.115543     -3.100252
  C       0.252447      0.270221     -4.421537
  C       2.059570      0.132403     -2.267335
  H       6.158392      0.163062     -0.822332
  H       5.033301      0.934132      0.341140
  H       5.085837     -0.855343      0.191314
  H       3.049685     -0.073723      1.007718
  H       0.480214     -0.358022      3.531127
  H       1.782317      0.658068      2.829821
  H       1.866509     -1.135408      2.701130
  H      -0.716209     -2.704632     -0.695511
  H      -1.187676     -4.678732      0.752377
  H      -2.648012     -4.435715      2.759954
  H      -3.660334     -2.219770      3.298039
  H      -3.196937     -0.238259      1.797242
  H      -0.389592      2.265546      1.170385
  H      -1.796661      2.142639      2.255810
  H      -1.346489      4.270439      0.153689
  H      -2.840990      4.097189      1.110805
  H      -3.812844      2.745441     -0.711231
  H      -2.280785      2.843694     -1.619435
  H       0.890256     -0.577020     -4.731509
  H       0.822186      1.208321     -4.546102
  H      -0.637677      0.302745     -5.063953
  H       2.518442      0.225082     -3.249520
45
Coordinates from ORCA-job file E -1359.602945365775
  C       5.163954      0.107592     -0.382027
  O       4.234877      0.161998     -1.439524
  C       2.909579      0.077136     -1.165966
  C       2.393773     -0.045866      0.130591
  C       1.000953     -0.119401      0.299982
  O       0.412705     -0.226511      1.511780
  C       1.189331     -0.264938      2.683995
  C       0.135545     -0.092935     -0.805325
  S      -1.693572      0.054357     -0.619715
  C      -1.943331     -1.361816      0.493249
  C      -1.339124     -2.588907      0.212362
  C      -1.603099     -3.682787      1.038722
  C      -2.462745     -3.548075      2.135002
  C      -3.065278     -2.314254      2.397578
  C      -2.811700     -1.215729      1.571027
  C      -2.197728      1.441463      0.149484
  C      -1.495440      2.266295      1.221240
  C      -2.114974      3.534145      0.563447
  C      -2.684227      2.679597     -0.609216
  C       0.679464      0.048621     -2.097450
  O      -0.211522      0.094884     -3.115670
  C       0.255170      0.254292     -4.436358
  C       2.062293      0.124484     -2.282340
  H       6.161026      0.182611     -0.837029
  H       5.030762      0.944812      0.327236
  H       5.095829     -0.844201      0.175843
  H       3.053145     -0.075361      0.993084
  H       0.481398     -0.360252      3.517925
  H       1.777927      0.661168      2.813989
  H       1.873835     -1.132054      2.692513
  H      -0.659308     -2.685515     -0.637506
  H      -1.135254     -4.647709      0.824934
  H      -2.664571     -4.406410      2.781042
  H      -3.738029     -2.203544      3.252529
  H      -3.266776     -0.235632      1.738773
  H      -0.389617      2.257219      1.190555
  H      -1.794158      2.073886      2.269375
  H      -1.370755      4.284439      0.253987
  H      -2.880516      4.042012      1.169883
  H      -3.779552      2.756680     -0.745081
  H      -2.213886      2.894692     -1.586496
  H       0.898212     -0.588603     -4.747511
  H       0.819307      1.196063     -4.559307
  H      -0.634917      0.282372     -5.079131
  H       2.521093      0.219681     -3.264374
45
Coordinates from ORCA-job file E -1359.603239936595
  C       5.175499      0.117284     -0.388310
  O       4.247106      0.155931     -1.446911
  C       2.922098      0.073068     -1.173968
  C       2.405079     -0.034635      0.124272
  C       1.012385     -0.108948      0.292638
  O       0.421853     -0.212516      1.503822
  C       1.197895     -0.245880      2.676645
  C       0.148817     -0.092660     -0.813740
  S      -1.679993      0.070318     -0.625657
  C      -1.944647     -1.349256      0.481049
  C      -1.350031     -2.580350      0.197796
  C      -1.627640     -3.675547      1.018334
  C      -2.488898     -3.537782      2.112642
  C      -3.080840     -2.299621      2.379390
  C      -2.814928     -1.200598      1.558067
  C      -2.166654      1.460335      0.152387
  C      -1.480507      2.273248      1.240964
  C      -2.175426      3.531690      0.640365
  C      -2.682907      2.701374     -0.578078
  C       0.692760      0.026771     -2.107370
  O      -0.196779      0.048750     -3.126972
  C       0.270107      0.186653     -4.449834
  C       2.076060      0.102129     -2.292265
  H       6.172851      0.185222     -0.843841
  H       5.042474      0.965290      0.307987
  H       5.107142     -0.825927      0.183815
  H       3.063778     -0.055466      0.987386
  H       0.490026     -0.345042      3.510182
  H       1.780992      0.683765      2.805915
  H       1.887710     -1.108754      2.685973
  H      -0.666606     -2.680640     -0.648748
  H      -1.167841     -4.643924      0.802460
  H      -2.699960     -4.397484      2.753974
  H      -3.756149     -2.187212      3.232092
  H      -3.263453     -0.217191      1.720618
  H      -0.376547      2.324595      1.179966
  H      -1.739342      2.026946      2.288164
  H      -1.480789      4.344637      0.377200
  H      -2.977059      3.953832      1.264893
  H      -3.774445      2.744479     -0.751348
  H      -2.185451      2.972603     -1.528088
  H       0.915665     -0.659598     -4.746316
  H       0.831116      1.128031     -4.588912
  H      -0.619945      0.200655     -5.093143
  H       2.535523      0.181425     -3.275395
45
Coordinates from ORCA-job file E -1359.603443870914
  C       5.181516      0.117959     -0.388723
  O       4.255967      0.134348     -1.450323
  C       2.930387      0.058528     -1.179474
  C       2.410984     -0.022615      0.119814
  C       1.018143     -0.089837      0.287417
  O       0.424291     -0.172720      1.498259
  C       1.198494     -0.182282      2.672804
  C       0.157009     -0.086792     -0.820048
  S      -1.667118      0.092068     -0.627967
  C      -1.944091     -1.340873      0.465769
  C      -1.359845     -2.573378      0.169990
  C      -1.650270     -3.675708      0.977339
  C      -2.514256     -3.542147      2.069592
  C      -3.096244     -2.301518      2.348906
  C      -2.817215     -1.196355      1.541162
  C      -2.130687      1.480363      0.166209
  C      -1.442987      2.283644      1.257058
  C      -2.218647      3.525336      0.722506
  C      -2.690338      2.721064     -0.528196
  C       0.702192     -0.000998     -2.115475
  O      -0.184937     -0.000631     -3.136971
  C       0.284128      0.112263     -4.461318
  C       2.086311      0.066326     -2.299759
  H       6.180257      0.175550     -0.842629
  H       5.046781      0.981053      0.288473
  H       5.110961     -0.812635      0.203432
  H       3.068671     -0.029380      0.983938
  H       0.489706     -0.268810      3.506939
  H       1.777933      0.751737      2.785758
  H       1.891331     -1.042395      2.698529
  H      -0.674543     -2.671590     -0.675332
  H      -1.198914     -4.645991      0.752545
  H      -2.735459     -4.407397      2.699940
  H      -3.773028     -2.193667      3.200995
  H      -3.255592     -0.208805      1.709594
  H      -0.345917      2.393725      1.147795
  H      -1.641637      1.992536      2.305585
  H      -1.585058      4.397116      0.496116
  H      -3.041347      3.854006      1.375059
  H      -3.779404      2.735107     -0.719082
  H      -2.184686      3.045191     -1.458097
  H       0.929872     -0.739701     -4.740715
  H       0.845451      1.050813     -4.617164
  H      -0.604856      0.114303     -5.106252
  H       2.546794      0.123187     -3.283897
45
Coordinates from ORCA-job file E -1359.603568645029
  C       5.189551      0.112219     -0.398226
  O       4.264605      0.113775     -1.460450
  C       2.938751      0.045216     -1.188877
  C       2.419645     -0.017236      0.111149
  C       1.026835     -0.078457      0.280379
  O       0.433816     -0.148960      1.491737
  C       1.208881     -0.131343      2.665486
  C       0.165342     -0.085953     -0.826541
  S      -1.655157      0.105622     -0.630071
  C      -1.943700     -1.332808      0.458052
  C      -1.360024     -2.565541      0.163656
  C      -1.661374     -3.669969      0.964474
  C      -2.537047     -3.537294      2.047372
  C      -3.119502     -2.296111      2.324056
  C      -2.828703     -1.189087      1.523226
  C      -2.106065      1.492773      0.167485
  C      -1.438539      2.278177      1.279635
  C      -2.264558      3.506505      0.791876
  C      -2.672831      2.740011     -0.504654
  C       0.710045     -0.021819     -2.123235
  O      -0.177255     -0.035193     -3.144372
  C       0.291181      0.067235     -4.469693
  C       2.094339      0.039261     -2.308838
  H       6.188600      0.163147     -0.852140
  H       5.054044      0.984934      0.266352
  H       5.118345     -0.809744      0.207244
  H       3.077983     -0.015061      0.974851
  H       0.501462     -0.206299      3.501846
  H       1.782004      0.808543      2.760258
  H       1.907261     -0.986313      2.706816
  H      -0.667249     -2.662985     -0.675562
  H      -1.210264     -4.640738      0.741447
  H      -2.767464     -4.403805      2.672676
  H      -3.804687     -2.189857      3.169645
  H      -3.264713     -0.200002      1.691476
  H      -0.347332      2.434895      1.155514
  H      -1.607156      1.946544      2.321070
  H      -1.682996      4.427145      0.628000
  H      -3.119346      3.743034      1.443234
  H      -3.751732      2.740954     -0.745829
  H      -2.130713      3.112319     -1.396313
  H       0.939196     -0.785390     -4.741699
  H       0.850121      1.005792     -4.633900
  H      -0.597786      0.061348     -5.114559
  H       2.554289      0.080514     -3.293953
45
Coordinates from ORCA-job file E -1359.603629395672
  C       5.197139      0.104742     -0.410973
  O       4.271002      0.095244     -1.472182
  C       2.945222      0.032731     -1.197980
  C       2.427730     -0.017912      0.102758
  C       1.034833     -0.074233      0.274835
  O       0.444142     -0.135631      1.487662
  C       1.220458     -0.094089      2.659861
  C       0.171577     -0.086885     -0.830678
  S      -1.646882      0.113893     -0.633108
  C      -1.944900     -1.324188      0.452710
  C      -1.352904     -2.555170      0.167160
  C      -1.660296     -3.660301      0.964439
  C      -2.551342     -3.529778      2.035217
  C      -3.141837     -2.290567      2.302599
  C      -2.844387     -1.182310      1.505280
  C      -2.094859      1.499061      0.167024
  C      -1.450153      2.267212      1.302932
  C      -2.300924      3.488033      0.841536
  C      -2.648140      2.757190     -0.493218
  C       0.715157     -0.035393     -2.128709
  O      -0.173757     -0.055292     -3.148505
  C       0.292759      0.040176     -4.474937
  C       2.099152      0.019980     -2.316660
  H       6.195613      0.152018     -0.866478
  H       5.061183      0.983724      0.245190
  H       5.127240     -0.811224      0.203751
  H       3.087377     -0.010856      0.965445
  H       0.514319     -0.152489      3.498625
  H       1.792602      0.848097      2.735798
  H       1.919544     -0.947500      2.717663
  H      -0.649325     -2.649030     -0.663376
  H      -1.202133     -4.629219      0.748058
  H      -2.787450     -4.396098      2.658656
  H      -3.838775     -2.186318      3.138797
  H      -3.288159     -0.196537      1.672224
  H      -0.362130      2.451430      1.181869
  H      -1.609346      1.906849      2.336042
  H      -1.757661      4.440313      0.737238
  H      -3.185022      3.653090      1.475698
  H      -3.713806      2.758266     -0.786748
  H      -2.065945      3.161653     -1.345637
  H       0.939036     -0.814624     -4.744254
  H       0.853355      0.976891     -4.644224
  H      -0.597078      0.033038     -5.118582
  H       2.557870      0.052014     -3.302719
45
Coordinates from ORCA-job file E -1359.603672716029
  C       5.197301      0.101135     -0.414208
  O       4.270226      0.090049     -1.474717
  C       2.944575      0.029917     -1.198923
  C       2.427991     -0.021283      0.101996
  C       1.035005     -0.075503      0.275292
  O       0.445570     -0.137239      1.488682
  C       1.222000     -0.089445      2.660526
  C       0.170496     -0.087010     -0.829455
  S      -1.647234      0.112937     -0.632913
  C      -1.945084     -1.324055      0.453445
  C      -1.347613     -2.553446      0.171342
  C      -1.653572     -3.658882      0.968346
  C      -2.548919     -3.530482      2.036050
  C      -3.144424     -2.293196      2.299911
  C      -2.848365     -1.184015      1.502601
  C      -2.101147      1.496405      0.168202
  C      -1.458419      2.263965      1.306814
  C      -2.299526      3.488551      0.839744
  C      -2.639614      2.758613     -0.496990
  C       0.713784     -0.033953     -2.128002
  O      -0.176230     -0.050857     -3.147073
  C       0.289371      0.045194     -4.473814
  C       2.097484      0.019777     -2.316935
  H       6.195282      0.148985     -0.870718
  H       5.060946      0.980368      0.241517
  H       5.128737     -0.814420      0.201293
  H       3.088120     -0.016406      0.964352
  H       0.515779     -0.138794      3.499820
  H       1.797382      0.851263      2.729681
  H       1.917942     -0.944969      2.725166
  H      -0.640926     -2.644057     -0.656885
  H      -1.190708     -4.626084      0.754316
  H      -2.784422     -4.396654      2.659925
  H      -3.844896     -2.190462      3.133343
  H      -3.298587     -0.201621      1.670889
  H      -0.368638      2.439932      1.190658
  H      -1.624712      1.906905      2.339969
  H      -1.756482      4.441798      0.743418
  H      -3.190033      3.649513      1.466154
  H      -3.702425      2.767094     -0.800614
  H      -2.046236      3.156532     -1.344875
  H       0.933143     -0.810909     -4.745029
  H       0.852543      0.980525     -4.642217
  H      -0.601011      0.041488     -5.116742
  H       2.555645      0.052796     -3.303246
45
Coordinates from ORCA-job file E -1359.603710971533
  C       5.195085      0.106993     -0.416024
  O       4.267244      0.093686     -1.476004
  C       2.941956      0.031675     -1.198929
  C       2.426235     -0.025196      0.102149
  C       1.033361     -0.081204      0.275975
  O       0.444695     -0.147155      1.489503
  C       1.220062     -0.092763      2.661720
  C       0.167607     -0.090761     -0.828207
  S      -1.649466      0.106800     -0.632489
  C      -1.947116     -1.327614      0.455850
  C      -1.345279     -2.556325      0.178477
  C      -1.650419     -3.660504      0.976983
  C      -2.549077     -3.532245      2.042193
  C      -3.148288     -2.296122      2.301388
  C      -2.853303     -1.187394      1.502233
  C      -2.110366      1.489163      0.170964
  C      -1.458596      2.259186      1.304996
  C      -2.286426      3.488774      0.829711
  C      -2.627023      2.756139     -0.504327
  C       0.710721     -0.030962     -2.126973
  O      -0.180295     -0.043881     -3.145364
  C       0.284344      0.056788     -4.472192
  C       2.094057      0.025270     -2.316479
  H       6.192418      0.160351     -0.873341
  H       5.055069      0.984186      0.241603
  H       5.131317     -0.810076      0.197722
  H       3.086390     -0.023894      0.964525
  H       0.513021     -0.135361      3.500720
  H       1.797062      0.847289      2.725380
  H       1.914269     -0.949255      2.733018
  H      -0.635928     -2.645419     -0.647578
  H      -1.183911     -4.626718      0.766301
  H      -2.784061     -4.397352      2.667746
  H      -3.851549     -2.192948      3.132420
  H      -3.308425     -0.207325      1.669456
  H      -0.366980      2.420787      1.188490
  H      -1.629160      1.911306      2.340730
  H      -1.739308      4.439724      0.735716
  H      -3.180036      3.653913      1.450691
  H      -3.687663      2.777016     -0.815093
  H      -2.022963      3.138379     -1.351780
  H       0.927423     -0.798671     -4.747076
  H       0.848002      0.992344     -4.637558
  H      -0.606565      0.055960     -5.114410
  H       2.551967      0.063415     -3.302738
45
Coordinates from ORCA-job file E -1359.603732423656
  C       5.192159      0.117390     -0.415572
  O       4.264192      0.101347     -1.475475
  C       2.939210      0.035664     -1.198168
  C       2.423919     -0.026226      0.103008
  C       1.031297     -0.086040      0.276558
  O       0.442876     -0.157405      1.489883
  C       1.217380     -0.098546      2.662464
  C       0.164950     -0.094896     -0.827563
  S      -1.651800      0.101853     -0.631480
  C      -1.949602     -1.330909      0.457567
  C      -1.348896     -2.560443      0.180655
  C      -1.653899     -3.663459      0.980541
  C      -2.550926     -3.533924      2.047015
  C      -3.148804     -2.297245      2.305942
  C      -2.854282     -1.189358      1.505233
  C      -2.116485      1.483896      0.173661
  C      -1.454255      2.255911      1.301587
  C      -2.274743      3.488202      0.821916
  C      -2.615690      2.754168     -0.510243
  C       0.707986     -0.029967     -2.126204
  O      -0.183203     -0.041784     -3.144396
  C       0.281165      0.062678     -4.471110
  C       2.091142      0.030281     -2.315607
  H       6.189104      0.176479     -0.873036
  H       5.047920      0.992696      0.243609
  H       5.133176     -0.801115      0.196500
  H       3.083857     -0.026997      0.965560
  H       0.509938     -0.141554      3.501114
  H       1.791941      0.843070      2.724506
  H       1.913719     -0.953181      2.735899
  H      -0.640300     -2.650413     -0.645937
  H      -1.188279     -4.630155      0.770006
  H      -2.785482     -4.398382      2.673612
  H      -3.850950     -2.192440      3.137707
  H      -3.309125     -0.209215      1.671787
  H      -0.362057      2.408828      1.179962
  H      -1.623795      1.914878      2.339775
  H      -1.724812      4.437698      0.729238
  H      -3.169703      3.656328      1.440101
  H      -3.674275      2.784964     -0.827102
  H      -2.002500      3.124756     -1.356231
  H       0.925784     -0.791029     -4.747800
  H       0.842983      0.999669     -4.634486
  H      -0.609832      0.061501     -5.113206
  H       2.549096      0.072425     -3.301689
45
Coordinates from ORCA-job file E -1359.603747987898
  C       5.187768      0.130989     -0.412763
  O       4.260245      0.111123     -1.472980
  C       2.935508      0.040732     -1.196286
  C       2.420187     -0.025114      0.104882
  C       1.027845     -0.089901      0.277516
  O       0.439081     -0.166421      1.490374
  C       1.212615     -0.103016      2.663425
  C       0.161552     -0.098990     -0.827002
  S      -1.655231      0.097548     -0.630003
  C      -1.952830     -1.334326      0.458430
  C      -1.357497     -2.565527      0.177338
  C      -1.661855     -3.668150      0.977954
  C      -2.552526     -3.537158      2.049440
  C      -3.145235     -2.298882      2.312771
  C      -2.851660     -1.191461      1.511338
  C      -2.121988      1.479416      0.177837
  C      -1.445668      2.253465      1.296969
  C      -2.261489      3.487861      0.815573
  C      -2.604091      2.752718     -0.514694
  C       0.704717     -0.030426     -2.125278
  O      -0.185961     -0.043271     -3.143697
  C       0.278707      0.063725     -4.470174
  C       2.087849      0.034375     -2.313965
  H       6.184522      0.195836     -0.869865
  H       5.038726      1.004862      0.247206
  H       5.133654     -0.788535      0.198229
  H       3.079681     -0.026391      0.967743
  H       0.504887     -0.150247      3.501598
  H       1.781856      0.841801      2.725408
  H       1.913761     -0.953692      2.737220
  H      -0.653215     -2.657475     -0.652743
  H      -1.200584     -4.636189      0.763960
  H      -2.786030     -4.401779      2.676198
  H      -3.842536     -2.192220      3.148361
  H      -3.302389     -0.209660      1.679001
  H      -0.353891      2.400048      1.164141
  H      -1.608916      1.919020      2.338173
  H      -1.709017      4.436055      0.723152
  H      -3.156365      3.658593      1.433071
  H      -3.660410      2.793606     -0.837550
  H      -1.981328      3.112736     -1.358191
  H       0.926270     -0.787680     -4.746981
  H       0.837251      1.002803     -4.632679
  H      -0.612036      0.059854     -5.112599
  H       2.546163      0.079347     -3.299758
45
Coordinates from ORCA-job file E -1359.603754434905
  C       5.185463      0.136128     -0.410338
  O       4.258424      0.115349     -1.470888
  C       2.933668      0.042983     -1.194944
  C       2.418014     -0.023646      0.106105
  C       1.025733     -0.090479      0.278111
  O       0.436518     -0.168685      1.490647
  C       1.209880     -0.105141      2.663868
  C       0.159978     -0.100180     -0.826837
  S      -1.657488      0.096274     -0.629341
  C      -1.954211     -1.335270      0.458657
  C      -1.363623     -2.567541      0.172844
  C      -1.666632     -3.670455      0.973756
  C      -2.551238     -3.538703      2.050001
  C      -3.139652     -2.299219      2.318040
  C      -2.847457     -1.191859      1.516499
  C      -2.124420      1.478313      0.179255
  C      -1.442995      2.253012      1.294849
  C      -2.257873      3.488033      0.813314
  C      -2.599329      2.752619     -0.517132
  C       0.703299     -0.031146     -2.124822
  O      -0.186847     -0.045065     -3.143588
  C       0.278213      0.062661     -4.469873
  C       2.086526      0.035421     -2.312918
  H       6.182335      0.202350     -0.866985
  H       5.035108      1.009699      0.249732
  H       5.132362     -0.783644      0.200382
  H       3.077334     -0.024061      0.969077
  H       0.502264     -0.157063      3.501840
  H       1.775579      0.841677      2.727790
  H       1.914292     -0.953259      2.735600
  H      -0.663905     -2.661135     -0.660930
  H      -1.209157     -4.639476      0.756108
  H      -2.783413     -4.403811      2.676582
  H      -3.832253     -2.191787      3.157429
  H      -3.294045     -0.208360      1.685806
  H      -0.351859      2.399120      1.155369
  H      -1.601871      1.920694      2.337252
  H      -1.704288      4.435679      0.721205
  H      -3.152951      3.659546      1.430253
  H      -3.653970      2.797321     -0.844588
  H      -1.970702      3.110101     -1.357380
  H       0.927602     -0.787494     -4.746172
  H       0.834826      1.002895     -4.632322
  H      -0.612258      0.056829     -5.112651
  H       2.545120      0.080777     -3.298562
45
Coordinates from ORCA-job file E -1359.603756903206
  C       5.184576      0.134826     -0.408484
  O       4.257884      0.115115     -1.469296
  C       2.932954      0.043074     -1.193934
  C       2.416803     -0.022557      0.106923
  C       1.024407     -0.089111      0.278594
  O       0.434675     -0.166224      1.490965
  C       1.208112     -0.105019      2.664301
  C       0.159358     -0.099191     -0.826737
  S      -1.658921      0.096631     -0.629456
  C      -1.954259     -1.334865      0.458457
  C      -1.366522     -2.567459      0.168685
  C      -1.667706     -3.671091      0.969515
  C      -2.547775     -3.539393      2.049390
  C      -3.133607     -2.299386      2.321313
  C      -2.843170     -1.191615      1.520035
  C      -2.125793      1.478711      0.179251
  C      -1.443676      2.253794      1.293888
  C      -2.259081      3.488802      0.812853
  C      -2.599729      2.752893     -0.517976
  C       0.702920     -0.030959     -2.124545
  O      -0.186854     -0.045438     -3.143636
  C       0.278603      0.061547     -4.469812
  C       2.086273      0.035047     -2.312223
  H       6.181712      0.199528     -0.864780
  H       5.035292      1.008797      0.251323
  H       5.129973     -0.784704      0.202473
  H       3.076088     -0.021829      0.969911
  H       0.500509     -0.159123      3.502138
  H       1.773319      0.841971      2.730243
  H       1.913010     -0.952857      2.734070
  H      -0.670469     -2.661642     -0.668103
  H      -1.212502     -4.640485      0.748861
  H      -2.778565     -4.405063      2.675711
  H      -3.822707     -2.192241      3.163616
  H      -3.287255     -0.207245      1.691385
  H      -0.353078      2.401274      1.150981
  H      -1.599693      1.921796      2.336721
  H      -1.705145      4.436181      0.720186
  H      -3.154113      3.660451      1.429830
  H      -3.653641      2.797917     -0.847502
  H      -1.968882      3.111204     -1.356267
  H       0.928279     -0.788611     -4.745416
  H       0.835069      1.001808     -4.632678
  H      -0.611663      0.055151     -5.112869
  H       2.545089      0.079589     -3.297804
45
Coordinates from ORCA-job file E -1359.603759035246
  C       5.184626      0.131971     -0.408091
  O       4.257961      0.114094     -1.468948
  C       2.932923      0.042705     -1.193703
  C       2.416578     -0.022727      0.107030
  C       1.024087     -0.088448      0.278704
  O       0.434217     -0.164788      1.491050
  C       1.207795     -0.106378      2.664431
  C       0.159324     -0.098398     -0.826735
  S      -1.659430      0.096578     -0.629898
  C      -1.953785     -1.334387      0.458861
  C      -1.366080     -2.566849      0.168535
  C      -1.666117     -3.670513      0.969819
  C      -2.545157     -3.538762      2.050536
  C      -3.131019     -2.298842      2.322879
  C      -2.841634     -1.191063      1.521250
  C      -2.126921      1.478770      0.178125
  C      -1.446007      2.254141      1.293180
  C      -2.261400      3.489016      0.811722
  C      -2.600721      2.752653     -0.519452
  C       0.702982     -0.030089     -2.124496
  O      -0.186813     -0.043785     -3.143654
  C       0.278696      0.063519     -4.469766
  C       2.086356      0.035318     -2.312101
  H       6.181888      0.195324     -0.864306
  H       5.036671      1.005910      0.252078
  H       5.128545     -0.787681      0.202548
  H       3.075939     -0.021869      0.969971
  H       0.500150     -0.160729      3.502219
  H       1.774236      0.839784      2.731795
  H       1.911587     -0.955226      2.732918
  H      -0.671000     -2.661099     -0.669048
  H      -1.210896     -4.639814      0.748841
  H      -2.775222     -4.404357      2.677230
  H      -3.819324     -2.191941      3.165863
  H      -3.285620     -0.206701      1.693051
  H      -0.355445      2.402171      1.150330
  H      -1.601719      1.922205      2.336067
  H      -1.707491      4.436364      0.719006
  H      -3.156943      3.660532      1.428005
  H      -3.654184      2.797355     -0.850451
  H      -1.968833      3.111527     -1.356765
  H       0.927890     -0.786870     -4.745819
  H       0.835777      1.003499     -4.632194
  H      -0.611561      0.057992     -5.112848
  H       2.545196      0.079886     -3.297669
