45
Coordinates from ORCA-job file
  C   5.18462553121856      0.13197101438456     -0.40809128181252
  O   4.25796146863845      0.11409416516578     -1.46894769280471
  C   2.93292349973170      0.04270545934610     -1.19370300776246
  C   2.41657816719590     -0.02272705545254      0.10703015215387
  C   1.02408650149335     -0.08844830863329      0.27870435205116
  O   0.43421734912075     -0.16478845522261      1.49105007849754
  C   1.20779492402641     -0.10637845282570      2.66443058278105
  C   0.15932363293581     -0.09839761615164     -0.82673542047761
  S   -1.65942998050039      0.09657831754969     -0.62989830295708
  C   -1.95378462469401     -1.33438743474955      0.45886061346749
  C   -1.36608026747844     -2.56684865480796      0.16853486888584
  C   -1.66611731033863     -3.67051310645026      0.96981932054435
  C   -2.54515699644352     -3.53876192578675      2.05053574589897
  C   -3.13101934144791     -2.29884159306099      2.32287940122370
  C   -2.84163405668565     -1.19106252021226      1.52125041636489
  C   -2.12692098352520      1.47877049237816      0.17812512740854
  C   -1.44600695181433      2.25414130927498      1.29317976542172
  C   -2.26139991235172      3.48901608060758      0.81172196019885
  C   -2.60072094614381      2.75265329913411     -0.51945210731570
  C   0.70298175945066     -0.03008857166634     -2.12449560135931
  O   -0.18681317949329     -0.04378537543821     -3.14365369201442
  C   0.27869584572638      0.06351919312495     -4.46976579688615
  C   2.08635563629245      0.03531830275598     -2.31210135611965
  H   6.18188793584333      0.19532369346856     -0.86430562677302
  H   5.03667128976351      1.00590987994362      0.25207806842912
  H   5.12854462304721     -0.78768144132745      0.20254835944264
  H   3.07593919026499     -0.02186857605119      0.96997077469925
  H   0.50015010366710     -0.16072862668038      3.50221874976278
  H   1.77423560264564      0.83978443428104      2.73179541663908
  H   1.91158685037103     -0.95522627469157      2.73291819650612
  H   -0.67099981158757     -2.66109890242827     -0.66904814020370
  H   -1.21089603602207     -4.63981368487023      0.74884075765641
  H   -2.77522190285675     -4.40435653088320      2.67723031986251
  H   -3.81932446076058     -2.19194103906075      3.16586295600924
  H   -3.28562037798599     -0.20670135943303      1.69305078245632
  H   -0.35544467737337      2.40217078864643      1.15032959342413
  H   -1.60171928711218      1.92220482699859      2.33606702970349
  H   -1.70749113007491      4.43636373310411      0.71900603829059
  H   -3.15694288520135      3.66053228119549      1.42800495773301
  H   -3.65418366267451      2.79735506457613     -0.85045148296327
  H   -1.96883322867665      3.11152682738159     -1.35676543736150
  H   0.92789045441524     -0.78687039297468     -4.74581892386930
  H   0.83577707303566      1.00349905989776     -4.63219391196545
  H   -0.61156142042453      0.05799173908024     -5.11284773938797
  H   2.54519599278325      0.07988593656343     -3.29766886347882
