17
Coordinates from ORCA-job file
  C   1.92747165171336      0.16988122906057     -0.23454371878895
  C   0.83240100512212     -0.82597054547340     -0.70257295029211
  C   -0.21576241603519     -0.05925498900502      0.14205600505945
  C   0.91058204229343      0.79580601935764      0.75726339742332
  C   -1.44297837195998      0.56494061370895     -0.54191985123669
  N   -2.29049705739300     -0.43427821633496      0.15995178210642
  N   -1.15324432147124     -0.79371756005906      1.02484570929576
  H   2.25986612511597      0.85642298730281     -1.01876875679393
  H   2.81056134403978     -0.28588263308199      0.22217668620111
  H   0.99278526802534     -1.85041498422240     -0.34642528533631
  H   0.63031386768704     -0.86066139053586     -1.77852082415418
  H   1.08846785846202      0.53437703833377      1.80507298162321
  H   0.76481612335578      1.87932435678655      0.68437793109169
  H   -1.62323224782212      1.60370950711811     -0.23721008824917
  H   -1.48792552622054      0.48914725847689     -1.63353203446791
  H   -2.98774133571938      0.01691062152258      0.74697824035685
  H   -1.01578400919340     -1.80033931295518      0.95087077616144
