17
Coordinates from ORCA-job file E -306.113192402765
  C       1.884200      0.123700     -0.116200
  C       0.835200     -0.775300     -0.781700
  C      -0.221000     -0.072600      0.054300
  C       0.803100      0.827300      0.713800
  C      -1.462200      0.493200     -0.552900
  N      -2.216800     -0.341300      0.388300
  N      -1.032500     -0.875600      0.956300
  H       2.377900      0.808800     -0.839900
  H       2.596900     -0.450700      0.515400
  H       0.977800     -1.847700     -0.526300
  H       0.736900     -0.571100     -1.870000
  H       0.914000      0.640900      1.804400
  H       0.691800      1.898500      0.437600
  H      -1.604500      1.581700     -0.367800
  H      -1.633000      0.165800     -1.600700
  H      -2.652000      0.276900      1.113600
  H      -0.995700     -1.882500      0.671900
17
Coordinates from ORCA-job file E -306.126518314371
  C       1.941784      0.127493     -0.122019
  C       0.861545     -0.772388     -0.782733
  C      -0.222508     -0.075975      0.061563
  C       0.837492      0.831049      0.713794
  C      -1.502503      0.497145     -0.550121
  N      -2.286753     -0.345825      0.392576
  N      -1.063284     -0.890436      0.970941
  H       2.453854      0.789969     -0.826146
  H       2.664260     -0.427227      0.483600
  H       0.981463     -1.837638     -0.554448
  H       0.751082     -0.602060     -1.859261
  H       0.926820      0.668338      1.791849
  H       0.718749      1.892740      0.469136
  H      -1.639516      1.574419     -0.397589
  H      -1.678003      0.203018     -1.591548
  H      -2.717475      0.237928      1.104770
  H      -1.026909     -1.870550      0.695735
17
Coordinates from ORCA-job file E -306.127807578702
  C       1.952199      0.133903     -0.139661
  C       0.861718     -0.773188     -0.770211
  C      -0.222373     -0.074961      0.083345
  C       0.859940      0.826775      0.719464
  C      -1.499841      0.504099     -0.543926
  N      -2.307260     -0.367648      0.353653
  N      -1.083832     -0.879437      0.991027
  H       2.461478      0.791621     -0.850031
  H       2.705753     -0.406017      0.439376
  H       0.971823     -1.841948     -0.554018
  H       0.722890     -0.644157     -1.848662
  H       0.949286      0.675151      1.799033
  H       0.727014      1.894088      0.512395
  H      -1.639778      1.581506     -0.396100
  H      -1.651876      0.254036     -1.599461
  H      -2.780554      0.192682      1.058573
  H      -1.026486     -1.866504      0.745304
17
Coordinates from ORCA-job file E -306.127866382624
  C       1.954325      0.132338     -0.137634
  C       0.865448     -0.774016     -0.772441
  C      -0.222269     -0.074159      0.075964
  C       0.860024      0.827362      0.715650
  C      -1.504394      0.506714     -0.543307
  N      -2.307119     -0.364495      0.358004
  N      -1.080327     -0.879305      0.986806
  H       2.467252      0.788535     -0.846442
  H       2.711126     -0.404707      0.441201
  H       0.972028     -1.843201     -0.554545
  H       0.729218     -0.658078     -1.853212
  H       0.943033      0.677308      1.796039
  H       0.726409      1.896597      0.516611
  H      -1.643741      1.584261     -0.394744
  H      -1.660036      0.266295     -1.601545
  H      -2.788252      0.186551      1.063709
  H      -1.022626     -1.868000      0.749985
17
Coordinates from ORCA-job file E -306.128022741235
  C       1.949191      0.141546     -0.159663
  C       0.856759     -0.784587     -0.757486
  C      -0.221013     -0.072577      0.094410
  C       0.871488      0.820530      0.726508
  C      -1.489124      0.518414     -0.542786
  N      -2.309251     -0.380142      0.313685
  N      -1.097966     -0.862747      0.997992
  H       2.427350      0.805203     -0.886687
  H       2.733465     -0.380940      0.395620
  H       0.976114     -1.847836     -0.515683
  H       0.702709     -0.695833     -1.838837
  H       0.977696      0.650578      1.802555
  H       0.731765      1.893605      0.551953
  H      -1.634719      1.591388     -0.365129
  H      -1.616882      0.309526     -1.611419
  H      -2.837718      0.151104      0.999627
  H      -1.019763     -1.857231      0.795438
17
Coordinates from ORCA-job file E -306.128070028763
  C       1.952935      0.127449     -0.161321
  C       0.845426     -0.782505     -0.755996
  C      -0.220816     -0.052904      0.097781
  C       0.885271      0.830220      0.718401
  C      -1.494025      0.529215     -0.537469
  N      -2.301420     -0.419434      0.277441
  N      -1.093237     -0.836283      1.010840
  H       2.437549      0.780609     -0.892238
  H       2.732253     -0.402678      0.394853
  H       0.950580     -1.845693     -0.509503
  H       0.690056     -0.696901     -1.837517
  H       0.990433      0.663530      1.794648
  H       0.759236      1.904537      0.539905
  H      -1.661192      1.591295     -0.316397
  H      -1.604394      0.365492     -1.615227
  H      -2.887879      0.079428      0.940820
  H      -0.980676     -1.835376      0.851079
17
Coordinates from ORCA-job file E -306.128132901281
  C       1.943100      0.152455     -0.175956
  C       0.852907     -0.792891     -0.746080
  C      -0.220279     -0.075471      0.106655
  C       0.876209      0.812555      0.737195
  C      -1.476331      0.524306     -0.544649
  N      -2.310192     -0.381528      0.289623
  N      -1.111988     -0.855741      1.001962
  H       2.389555      0.824937     -0.915725
  H       2.749605     -0.356241      0.359680
  H       0.986474     -1.849719     -0.483276
  H       0.686961     -0.725404     -1.827436
  H       1.001049      0.622307      1.808250
  H       0.730257      1.888150      0.583800
  H      -1.621751      1.595724     -0.356344
  H      -1.588480      0.325423     -1.616882
  H      -2.858105      0.143854      0.964810
  H      -1.028893     -1.852714      0.814474
17
Coordinates from ORCA-job file E -306.128142617220
  C       1.941190      0.157169     -0.178145
  C       0.854887     -0.794976     -0.744478
  C      -0.220170     -0.079298      0.106801
  C       0.873997      0.809117      0.740642
  C      -1.473780      0.523399     -0.546465
  N      -2.311490     -0.373299      0.293417
  N      -1.114645     -0.859456      0.999305
  H       2.379417      0.833593     -0.919440
  H       2.753383     -0.346690      0.353285
  H       0.993459     -1.849947     -0.476646
  H       0.688221     -0.732670     -1.826024
  H       1.001738      0.612473      1.810252
  H       0.724807      1.885124      0.593611
  H      -1.614638      1.596624     -0.365341
  H      -1.588016      0.316702     -1.617076
  H      -2.850038      0.157767      0.971540
  H      -1.038222     -1.855632      0.804861
17
Coordinates from ORCA-job file E -306.128277717227
  C       1.936626      0.159035     -0.195063
  C       0.844867     -0.802831     -0.733889
  C      -0.218563     -0.073173      0.121381
  C       0.885792      0.807482      0.745054
  C      -1.462542      0.536267     -0.542766
  N      -2.305460     -0.396950      0.248520
  N      -1.126115     -0.838356      1.011058
  H       2.353700      0.836051     -0.948676
  H       2.762722     -0.338113      0.320736
  H       0.988902     -1.852807     -0.448961
  H       0.666199     -0.758240     -1.814378
  H       1.030549      0.600897      1.810932
  H       0.737852      1.885187      0.609289
  H      -1.617130      1.600178     -0.320145
  H      -1.551494      0.369983     -1.622592
  H      -2.901030      0.105174      0.899782
  H      -1.024779     -1.839785      0.859818
17
Coordinates from ORCA-job file E -306.128338973909
  C       1.940136      0.146107     -0.197729
  C       0.834605     -0.802572     -0.732870
  C      -0.217616     -0.057931      0.125649
  C       0.897500      0.816319      0.736656
  C      -1.465117      0.547737     -0.535440
  N      -2.293392     -0.431923      0.213447
  N      -1.124318     -0.814775      1.022556
  H       2.367119      0.812496     -0.954530
  H       2.759047     -0.359417      0.321475
  H       0.965469     -1.853480     -0.446474
  H       0.654021     -0.757442     -1.812730
  H       1.041559      0.619191      1.804099
  H       0.760463      1.893910      0.590216
  H      -1.641165      1.596988     -0.264586
  H      -1.539296      0.430209     -1.622278
  H      -2.946476      0.033213      0.837364
  H      -0.992438     -1.818631      0.915274
17
Coordinates from ORCA-job file E -306.128364855193
  C       1.937717      0.157135     -0.197005
  C       0.844356     -0.806084     -0.732812
  C      -0.217392     -0.068704      0.118139
  C       0.887544      0.808816      0.742837
  C      -1.463771      0.541456     -0.542180
  N      -2.301489     -0.403153      0.239842
  N      -1.124404     -0.831030      1.011118
  H       2.349270      0.833040     -0.953660
  H       2.767072     -0.336613      0.316462
  H       0.984497     -1.852274     -0.435055
  H       0.668583     -0.771835     -1.813607
  H       1.031055      0.595759      1.806941
  H       0.743427      1.887040      0.610850
  H      -1.622461      1.600004     -0.300133
  H      -1.552713      0.390694     -1.623905
  H      -2.914841      0.089556      0.882785
  H      -1.016350     -1.833808      0.869483
17
Coordinates from ORCA-job file E -306.128437978224
  C       1.937815      0.149912     -0.205921
  C       0.833579     -0.809235     -0.727226
  C      -0.216132     -0.056466      0.127147
  C       0.899969      0.813518      0.739586
  C      -1.460620      0.553826     -0.535621
  N      -2.289724     -0.434442      0.198785
  N      -1.129021     -0.807299      1.022596
  H       2.346345      0.819385     -0.969724
  H       2.769018     -0.345937      0.302496
  H       0.967914     -1.853753     -0.421606
  H       0.650842     -0.782758     -1.806900
  H       1.050206      0.603020      1.803204
  H       0.762806      1.892332      0.605787
  H      -1.639504      1.597290     -0.245886
  H      -1.530184      0.451111     -1.624038
  H      -2.960354      0.021775      0.811080
  H      -0.992858     -1.812279      0.926341
17
Coordinates from ORCA-job file E -306.128459443102
  C       1.938354      0.155373     -0.203391
  C       0.840739     -0.809798     -0.727677
  C      -0.216783     -0.063336      0.121826
  C       0.894144      0.809510      0.741603
  C      -1.461969      0.548828     -0.539671
  N      -2.297131     -0.417362      0.218328
  N      -1.128191     -0.819428      1.015536
  H       2.340789      0.829312     -0.966044
  H       2.774622     -0.333881      0.303191
  H       0.979108     -1.852605     -0.418581
  H       0.660911     -0.788014     -1.807898
  H       1.041620      0.592884      1.804184
  H       0.752120      1.888413      0.614675
  H      -1.628408      1.599365     -0.270604
  H      -1.541663      0.426388     -1.625404
  H      -2.941357      0.057995      0.844776
  H      -1.006807     -1.823644      0.895252
17
Coordinates from ORCA-job file E -306.128563583125
  C       1.936327      0.153159     -0.216753
  C       0.831434     -0.816194     -0.718374
  C      -0.215388     -0.054366      0.132391
  C       0.906056      0.810246      0.741829
  C      -1.455264      0.561938     -0.534376
  N      -2.285462     -0.443150      0.175709
  N      -1.137418     -0.796894      1.025268
  H       2.322914      0.824494     -0.989624
  H       2.783264     -0.330780      0.277004
  H       0.969886     -1.853819     -0.392806
  H       0.641983     -0.812114     -1.796965
  H       1.064928      0.588075      1.801592
  H       0.767531      1.890299      0.622313
  H      -1.638930      1.596654     -0.219172
  H      -1.515263      0.486984     -1.625327
  H      -2.983750     -0.002089      0.769117
  H      -0.992747     -1.802443      0.948275
17
Coordinates from ORCA-job file E -306.128605161459
  C       1.935539      0.164729     -0.212634
  C       0.843824     -0.816683     -0.719040
  C      -0.216841     -0.067963      0.124795
  C       0.895261      0.801943      0.747980
  C      -1.456310      0.551146     -0.542853
  N      -2.300769     -0.410122      0.212553
  N      -1.136863     -0.820340      1.013216
  H       2.309962      0.845540     -0.982835
  H       2.791800     -0.307486      0.276570
  H       0.992721     -1.851848     -0.390407
  H       0.658545     -0.818615     -1.798436
  H       1.051485      0.567429      1.805325
  H       0.747047      1.882202      0.642868
  H      -1.616826      1.602240     -0.274081
  H      -1.532345      0.432808     -1.629226
  H      -2.945554      0.069885      0.835577
  H      -1.020576     -1.824865      0.890728
17
Coordinates from ORCA-job file E -306.128693815790
  C       1.933744      0.160329     -0.224472
  C       0.833024     -0.821298     -0.710944
  C      -0.215513     -0.057289      0.136044
  C       0.908086      0.804242      0.747582
  C      -1.450511      0.563578     -0.536960
  N      -2.288572     -0.439021      0.169419
  N      -1.144888     -0.796971      1.024210
  H       2.297171      0.837321     -1.003185
  H       2.797140     -0.310138      0.253826
  H       0.980463     -1.853037     -0.371175
  H       0.637894     -0.835903     -1.788382
  H       1.074728      0.567808      1.802980
  H       0.765009      1.885552      0.646650
  H      -1.630912      1.599099     -0.222991
  H      -1.505442      0.492853     -1.628449
  H      -2.987831      0.005780      0.759320
  H      -1.003488     -1.802904      0.946628
17
Coordinates from ORCA-job file E -306.128721575474
  C       1.932119      0.170293     -0.220275
  C       0.842978     -0.820815     -0.712520
  C      -0.216791     -0.068886      0.129780
  C       0.898197      0.797218      0.753523
  C      -1.451111      0.553459     -0.544727
  N      -2.301615     -0.409911      0.202303
  N      -1.143581     -0.817137      1.014380
  H       2.286596      0.855826     -0.995637
  H       2.801746     -0.291757      0.255113
  H       0.999685     -1.851164     -0.372369
  H       0.652070     -0.837395     -1.790858
  H       1.062767      0.549703      1.806702
  H       0.747460      1.878653      0.664474
  H      -1.612139      1.604385     -0.274853
  H      -1.519474      0.439962     -1.632137
  H      -2.951790      0.069800      0.819877
  H      -1.027017     -1.822234      0.897324
17
Coordinates from ORCA-job file E -306.128796298154
  C       1.930221      0.165046     -0.231420
  C       0.831648     -0.824793     -0.705189
  C      -0.215453     -0.057700      0.140871
  C       0.910914      0.800049      0.752723
  C      -1.445563      0.565774     -0.538543
  N      -2.288266     -0.439617      0.159267
  N      -1.150911     -0.793299      1.025619
  H       2.275804      0.846464     -1.014402
  H       2.805213     -0.296956      0.234148
  H       0.986253     -1.852281     -0.355546
  H       0.631263     -0.851900     -1.781501
  H       1.085211      0.551568      1.804209
  H       0.766236      1.882523      0.666255
  H      -1.627695      1.600903     -0.223386
  H      -1.492900      0.499540     -1.630690
  H      -2.992781      0.004260      0.743392
  H      -1.009093     -1.799581      0.954293
17
Coordinates from ORCA-job file E -306.128812919252
  C       1.929280      0.172403     -0.226993
  C       0.839719     -0.823699     -0.707508
  C      -0.216463     -0.066679      0.134969
  C       0.902471      0.794967      0.756808
  C      -1.446743      0.557338     -0.544823
  N      -2.299030     -0.416178      0.187123
  N      -1.148516     -0.809583      1.017750
  H       2.269991      0.860235     -1.006512
  H       2.807512     -0.284170      0.238002
  H       1.000562     -1.850567     -0.358648
  H       0.643839     -0.850469     -1.784823
  H       1.073866      0.538207      1.806772
  H       0.752296      1.877426      0.678435
  H      -1.613168      1.605294     -0.265795
  H      -1.505723      0.454665     -1.633787
  H      -2.963484      0.056289      0.794928
  H      -1.026309     -1.815480      0.914202
17
Coordinates from ORCA-job file E -306.128850461160
  C       1.927942      0.165910     -0.236452
  C       0.828284     -0.826533     -0.701468
  C      -0.215236     -0.054976      0.145119
  C       0.914687      0.798663      0.755063
  C      -1.442383      0.569038     -0.538421
  N      -2.284606     -0.445952      0.146280
  N      -1.154573     -0.786120      1.028638
  H       2.263627      0.848961     -1.022342
  H       2.808930     -0.292898      0.221165
  H       0.985444     -1.851585     -0.345666
  H       0.623899     -0.860682     -1.776913
  H       1.094015      0.542952      1.804056
  H       0.771408      1.882062      0.676603
  H      -1.630551      1.600922     -0.215396
  H      -1.481936      0.512173     -1.631332
  H      -3.001096     -0.009446      0.721258
  H      -1.007754     -1.792490      0.969907
17
Coordinates from ORCA-job file E -306.128863440894
  C       1.927822      0.171857     -0.231828
  C       0.835870     -0.825405     -0.704193
  C      -0.216049     -0.063023      0.139178
  C       0.906905      0.794792      0.757754
  C      -1.444057      0.561532     -0.543592
  N      -2.294803     -0.425319      0.171945
  N      -1.151673     -0.801074      1.021516
  H       2.261633      0.859670     -1.014344
  H       2.810173     -0.282999      0.227153
  H       0.997496     -1.850329     -0.349978
  H       0.636218     -0.858110     -1.780667
  H       1.082679      0.533855      1.806016
  H       0.758734      1.877916      0.684188
  H      -1.617584      1.604860     -0.251218
  H      -1.494870      0.472919     -1.634084
  H      -2.976763      0.036379      0.768595
  H      -1.021630     -1.807521      0.933657
17
Coordinates from ORCA-job file E -306.128870930567
  C       1.927536      0.168635     -0.235235
  C       0.830968     -0.826162     -0.702122
  C      -0.215566     -0.057785      0.143152
  C       0.911979      0.796709      0.756674
  C      -1.442690      0.566268     -0.540854
  N      -2.288605     -0.438111      0.155360
  N      -1.153698     -0.791200      1.026107
  H       2.260680      0.854155     -1.020043
  H       2.810133     -0.288024      0.221530
  H       0.990375     -1.850743     -0.345933
  H       0.628049     -0.860837     -1.777894
  H       1.090448      0.536872      1.804793
  H       0.767075      1.880224      0.682237
  H      -1.625642      1.602863     -0.230277
  H      -1.485671      0.496492     -1.632927
  H      -2.992120      0.008408      0.738511
  H      -1.013151     -1.797765      0.957022
17
Coordinates from ORCA-job file E -306.128873137921
  C       1.927564      0.170966     -0.233339
  C       0.834096     -0.825733     -0.703267
  C      -0.215924     -0.061129      0.140717
  C       0.908807      0.795183      0.757608
  C      -1.443412      0.563309     -0.542795
  N      -2.292660     -0.429850      0.165685
  N      -1.152562     -0.797262      1.023253
  H       2.260226      0.858271     -1.016785
  H       2.810549     -0.284167      0.224196
  H       0.995264     -1.850310     -0.347834
  H       0.633125     -0.859717     -1.779458
  H       1.085785      0.533627      1.805529
  H       0.761837      1.878539      0.684769
  H      -1.620350      1.604393     -0.244291
  H      -1.491070      0.481129     -1.633878
  H      -2.982417      0.026588      0.757428
  H      -1.018759     -1.803835      0.942562
17
Coordinates from ORCA-job file E -306.128875103854
  C       1.927447      0.169090     -0.235190
  C       0.831338     -0.826141     -0.702154
  C      -0.215640     -0.058154      0.142900
  C       0.911647      0.796331      0.756943
  C      -1.442704      0.565962     -0.541226
  N      -2.289105     -0.437066      0.156432
  N      -1.153652     -0.791719      1.025807
  H       2.259975      0.855018     -1.019897
  H       2.810427     -0.287159      0.221260
  H       0.991147     -1.850575     -0.345719
  H       0.628577     -0.861108     -1.777956
  H       1.090062      0.535576      1.804838
  H       0.766547      1.879893      0.683424
  H      -1.624978      1.603182     -0.232368
  H      -1.486068      0.494450     -1.633171
  H      -2.990991      0.010740      0.740540
  H      -1.013930     -1.798318      0.955637
17
Coordinates from ORCA-job file E -306.128875725200
  C       1.927489      0.170242     -0.234180
  C       0.832939     -0.825907     -0.702775
  C      -0.215812     -0.059853      0.141641
  C       0.910023      0.795596      0.757388
  C      -1.443100      0.564429     -0.542200
  N      -2.291194     -0.432864      0.161750
  N      -1.153040     -0.794845      1.024337
  H       2.259911      0.857040     -1.018170
  H       2.810580     -0.285294      0.222761
  H       0.993594     -1.850376     -0.346812
  H       0.631197     -0.860422     -1.778798
  H       1.087640      0.534097      1.805223
  H       0.763867      1.879065      0.684551
  H      -1.622295      1.603941     -0.239459
  H      -1.488888      0.486609     -1.633650
  H      -2.986068      0.020000      0.750278
  H      -1.016744     -1.801457      0.948217
17
Coordinates from ORCA-job file E -306.128875996119
  C       1.927454      0.169506     -0.234869
  C       0.831878     -0.826047     -0.702366
  C      -0.215705     -0.058705      0.142470
  C       0.911108      0.796049      0.757121
  C      -1.442844      0.565437     -0.541598
  N      -2.289821     -0.435638      0.158226
  N      -1.153443     -0.792719      1.025320
  H       2.259881      0.855764     -1.019329
  H       2.810509     -0.286489      0.221691
  H       0.991988     -1.850479     -0.346062
  H       0.629458     -0.860890     -1.778242
  H       1.089257      0.534883      1.804956
  H       0.765680      1.879595      0.683993
  H      -1.624095      1.603464     -0.234903
  H      -1.487001      0.491691     -1.633371
  H      -2.989329      0.013911      0.743830
  H      -1.014874     -1.799333      0.953233
17
Coordinates from ORCA-job file E -306.128876139763
  C       1.927475      0.170028     -0.234406
  C       0.832612     -0.825945     -0.702650
  C      -0.215783     -0.059491      0.141896
  C       0.910362      0.795717      0.757317
  C      -1.443023      0.564740     -0.542033
  N      -2.290771     -0.433721      0.160653
  N      -1.153168     -0.794155      1.024650
  H       2.259865      0.856677     -1.018540
  H       2.810574     -0.285641      0.222389
  H       0.993109     -1.850396     -0.346569
  H       0.630657     -0.860575     -1.778626
  H       1.088148      0.534242      1.805131
  H       0.764444      1.879217      0.684469
  H      -1.622859      1.603805     -0.238108
  H      -1.488293      0.488142     -1.633581
  H      -2.987084      0.018129      0.748268
  H      -1.016165     -1.800773      0.949841
17
Coordinates from ORCA-job file E -306.128876178678
  C       1.927468      0.169778     -0.234632
  C       0.832258     -0.825990     -0.702518
  C      -0.215747     -0.059103      0.142168
  C       0.910726      0.795872      0.757226
  C      -1.442944      0.565076     -0.541834
  N      -2.290313     -0.434651      0.159481
  N      -1.153298     -0.793442      1.024978
  H       2.259873      0.856244     -1.018920
  H       2.810547     -0.286051      0.222045
  H       0.992566     -1.850433     -0.346331
  H       0.630081     -0.860719     -1.778448
  H       1.088683      0.534511      1.805042
  H       0.765055      1.879400      0.684278
  H      -1.623472      1.603644     -0.236587
  H      -1.487675      0.489836     -1.633490
  H      -2.988176      0.016091      0.746120
  H      -1.015533     -1.800062      0.951522
17
Coordinates from ORCA-job file E -306.128876209983
  C       1.927476      0.170027     -0.234414
  C       0.832604     -0.825942     -0.702651
  C      -0.215783     -0.059477      0.141902
  C       0.910373      0.795715      0.757322
  C      -1.443024      0.564745     -0.542038
  N      -2.290762     -0.433744      0.160625
  N      -1.153172     -0.794122      1.024664
  H       2.259859      0.856678     -1.018550
  H       2.810579     -0.285647      0.222369
  H       0.993098     -1.850395     -0.346571
  H       0.630642     -0.860570     -1.778627
  H       1.088163      0.534211      1.805129
  H       0.764467      1.879219      0.684503
  H      -1.622882      1.603805     -0.238104
  H      -1.488278      0.488155     -1.633586
  H      -2.987110      0.018086      0.748214
  H      -1.016150     -1.800742      0.949913
17
Coordinates from ORCA-job file E -306.128876227549
  C       1.927472      0.169881     -0.234544
  C       0.832401     -0.825971     -0.702573
  C      -0.215762     -0.059255      0.142056
  C       0.910582      0.795806      0.757263
  C      -1.442978      0.564941     -0.541920
  N      -2.290497     -0.434278      0.159952
  N      -1.153244     -0.793718      1.024846
  H       2.259866      0.856423     -1.018769
  H       2.810561     -0.285883      0.222177
  H       0.992785     -1.850415     -0.346425
  H       0.630314     -0.860661     -1.778521
  H       1.088468      0.534377      1.805073
  H       0.764816      1.879324      0.684378
  H      -1.623232      1.603710     -0.237210
  H      -1.487926      0.489147     -1.633532
  H      -2.987741      0.016911      0.746978
  H      -1.015784     -1.800339      0.950871
