26
Coordinates from ORCA-job file
  C   2.25577187947980     -0.72128762128376      0.69780638137516
  C   0.92656522573968     -1.48896667962550      0.63276397252329
  C   -0.27908651535651     -0.63402341428134      1.05481575665620
  C   -0.92009411625951      0.19447520656497     -0.06484955778016
  C   0.09746080366503      0.87877900802562     -0.98267871968258
  N   1.29803298964828      1.35955163098672     -0.29989367252086
  C   2.40600172230380      0.40206891646002     -0.32940480216727
  C   -2.08499559547489      1.05840987024396      0.49019152168227
  N   -3.03859977625930      0.00109256893005      0.08145332139877
  C   -2.02669168889583     -0.57926866869717     -0.82834019822142
  H   2.35916068215100     -0.29361940598104      1.70386092039759
  H   3.09153760023787     -1.42035568157330      0.55782697830251
  H   0.77219499231394     -1.90092305431308     -0.37567197079382
  H   1.00178351192023     -2.35312706821960      1.30425609110464
  H   0.04261707928054      0.05221163151608      1.84821443530987
  H   -1.06552991783900     -1.26634338242940      1.48468645388289
  H   -0.39484713442234      1.72581431031267     -1.47606970584407
  H   0.36959693973450      0.16861191762786     -1.78601392554765
  H   1.59990053615720      2.23156821092257     -0.71559620846088
  H   3.33293172800065      0.94889224032614     -0.11950361059034
  H   2.51232840960242     -0.04523580793601     -1.33675927321608
  H   -2.19953623898127      2.00549756372412     -0.05881385992215
  H   -2.07760211604138      1.26602181484650      1.56687903631872
  H   -3.89077744131396      0.32521193279245     -0.36258748985460
  H   -1.97145260139112     -1.67541781645785     -0.81356747587670
  H   -2.11647095799984     -0.23983822248169     -1.87280439847333
