26
Coordinates from ORCA-job file E -424.191016790347
  C       2.263200     -0.659400      0.694900
  C       0.979500     -1.501900      0.616800
  C      -0.254500     -0.724000      1.103100
  C      -0.933700      0.116000     -0.010200
  C       0.021300      0.841700     -0.990100
  N       1.202900      1.369900     -0.287600
  C       2.345400      0.444000     -0.366700
  C      -2.054600      1.004500      0.535300
  N      -3.098900      0.278100     -0.188500
  C      -2.070800     -0.609700     -0.734000
  H       2.364200     -0.210100      1.707100
  H       3.133800     -1.336200      0.554100
  H       0.825600     -1.894200     -0.412100
  H       1.115800     -2.382200      1.282300
  H       0.034700     -0.053800      1.942600
  H      -0.983900     -1.444800      1.534400
  H      -0.516200      1.676700     -1.494500
  H       0.305600      0.148200     -1.813200
  H       1.489400      2.252900     -0.772400
  H       3.281700      1.014900     -0.177900
  H       2.454800      0.000600     -1.381800
  H      -1.991000      2.072900      0.224900
  H      -2.210800      0.908600      1.632700
  H      -3.451900      0.890700     -0.961900
  H      -2.234800     -1.654600     -0.391100
  H      -2.016600     -0.549000     -1.846000
26
Coordinates from ORCA-job file E -424.200649290486
  C       2.276543     -0.659082      0.690346
  C       0.991656     -1.499192      0.628036
  C      -0.252026     -0.715849      1.081864
  C      -0.943387      0.112881     -0.006655
  C       0.021671      0.819714     -0.967033
  N       1.213303      1.361804     -0.310897
  C       2.358278      0.445639     -0.362676
  C      -2.064018      1.023143      0.561025
  N      -3.112451      0.297163     -0.205379
  C      -2.081777     -0.613969     -0.771022
  H       2.361968     -0.208301      1.687919
  H       3.146154     -1.318359      0.558379
  H       0.845925     -1.899397     -0.386296
  H       1.121947     -2.366123      1.288415
  H       0.036454     -0.043661      1.900792
  H      -0.992374     -1.409952      1.500456
  H      -0.517261      1.640055     -1.459416
  H       0.302539      0.114966     -1.772130
  H       1.479551      2.218194     -0.779139
  H       3.270090      1.029665     -0.185553
  H       2.460454     -0.012505     -1.365184
  H      -1.978058      2.084661      0.297753
  H      -2.212537      0.928725      1.643233
  H      -3.484944      0.890860     -0.936421
  H      -2.239812     -1.654723     -0.463890
  H      -2.007689     -0.566556     -1.866326
26
Coordinates from ORCA-job file E -424.201377628514
  C       2.278898     -0.646470      0.696724
  C       1.008178     -1.508366      0.628609
  C      -0.252574     -0.744847      1.064600
  C      -0.950619      0.089443     -0.014466
  C       0.019693      0.775472     -0.981982
  N       1.192378      1.357133     -0.329852
  C       2.357637      0.469298     -0.345387
  C      -2.033779      1.036681      0.566019
  N      -3.109230      0.336591     -0.189227
  C      -2.114756     -0.598965     -0.781804
  H       2.343560     -0.199962      1.697702
  H       3.162820     -1.285994      0.572011
  H       0.880943     -1.921781     -0.382365
  H       1.146262     -2.369446      1.293779
  H       0.025176     -0.069469      1.883908
  H      -0.993313     -1.441776      1.477200
  H      -0.527460      1.569971     -1.505822
  H       0.324715      0.047222     -1.755743
  H       1.440369      2.224414     -0.790286
  H       3.249206      1.075485     -0.147263
  H       2.489533      0.012931     -1.345468
  H      -1.904485      2.096191      0.312682
  H      -2.173558      0.951801      1.649877
  H      -3.526434      0.931992     -0.896101
  H      -2.297935     -1.643067     -0.500574
  H      -2.035025     -0.544682     -1.876571
26
Coordinates from ORCA-job file E -424.201573280169
  C       2.277812     -0.670303      0.674053
  C       0.987515     -1.503102      0.631290
  C      -0.251559     -0.712223      1.083668
  C      -0.949993      0.118151      0.002847
  C       0.028496      0.799647     -0.961600
  N       1.216717      1.361426     -0.324277
  C       2.368469      0.455910     -0.356655
  C      -2.069097      1.041399      0.560476
  N      -3.109894      0.282542     -0.186966
  C      -2.075333     -0.601018     -0.789613
  H       2.366108     -0.232743      1.677090
  H       3.146945     -1.326407      0.531136
  H       0.834824     -1.921938     -0.374209
  H       1.119236     -2.364075      1.297688
  H       0.048226     -0.035021      1.893331
  H      -0.999170     -1.393395      1.510087
  H      -0.511280      1.597002     -1.488437
  H       0.320706      0.061863     -1.731482
  H       1.465422      2.235284     -0.770845
  H       3.269342      1.047369     -0.156634
  H       2.485718      0.008389     -1.362744
  H      -1.961912      2.100615      0.290535
  H      -2.212869      0.979319      1.645830
  H      -3.594125      0.848113     -0.874445
  H      -2.224416     -1.658143     -0.538704
  H      -1.975688     -0.518861     -1.881221
26
Coordinates from ORCA-job file E -424.201830733033
  C       2.276475     -0.665048      0.684048
  C       0.990572     -1.505741      0.627816
  C      -0.257349     -0.723456      1.070224
  C      -0.949343      0.112110     -0.013036
  C       0.035942      0.781996     -0.977202
  N       1.211202      1.357508     -0.327549
  C       2.372366      0.464495     -0.343651
  C      -2.048444      1.052299      0.552889
  N      -3.108421      0.271957     -0.140531
  C      -2.091801     -0.590999     -0.796064
  H       2.355674     -0.230867      1.689510
  H       3.149256     -1.317811      0.546423
  H       0.849191     -1.927137     -0.378237
  H       1.122667     -2.364600      1.297364
  H       0.033767     -0.047762      1.884653
  H      -1.004323     -1.409850      1.489642
  H      -0.500491      1.568193     -1.524106
  H       0.342248      0.034405     -1.732050
  H       1.453931      2.236647     -0.765091
  H       3.264505      1.063859     -0.126992
  H       2.512163      0.020930     -1.348612
  H      -1.943090      2.101598      0.244017
  H      -2.162319      1.025310      1.643158
  H      -3.658182      0.818663     -0.791493
  H      -2.233498     -1.656780     -0.578387
  H      -2.012498     -0.470122     -1.886544
26
Coordinates from ORCA-job file E -424.202169807011
  C       2.274604     -0.673062      0.690510
  C       0.981849     -1.504210      0.628714
  C      -0.260472     -0.709866      1.063165
  C      -0.944156      0.119992     -0.029623
  C       0.046538      0.794721     -0.984340
  N       1.221262      1.355129     -0.318847
  C       2.376994      0.456323     -0.336963
  C      -2.045690      1.052197      0.540784
  N      -3.104016      0.227175     -0.095691
  C      -2.089289     -0.591612     -0.803119
  H       2.360273     -0.241917      1.696896
  H       3.140487     -1.334376      0.550481
  H       0.840687     -1.924955     -0.377546
  H       1.104570     -2.361986      1.301708
  H       0.036046     -0.027711      1.870368
  H      -1.012427     -1.386413      1.489450
  H      -0.480292      1.592849     -1.522809
  H       0.350422      0.056730     -1.749672
  H       1.473334      2.236027     -0.748055
  H       3.272989      1.049215     -0.117684
  H       2.517382      0.014723     -1.342497
  H      -1.978165      2.088901      0.183759
  H      -2.127110      1.063216      1.634004
  H      -3.715663      0.744763     -0.715205
  H      -2.197571     -1.667618     -0.617322
  H      -2.042387     -0.428435     -1.890266
26
Coordinates from ORCA-job file E -424.202510251078
  C       2.271694     -0.682109      0.694212
  C       0.971932     -1.501785      0.628131
  C      -0.264396     -0.695641      1.057325
  C      -0.938901      0.132491     -0.042599
  C       0.058385      0.807651     -0.989396
  N       1.233928      1.354294     -0.312982
  C       2.383462      0.447863     -0.331674
  C      -2.047868      1.055078      0.529288
  N      -3.095358      0.182384     -0.053750
  C      -2.082255     -0.589967     -0.808811
  H       2.361254     -0.254071      1.701588
  H       3.131249     -1.351431      0.553023
  H       0.830280     -1.921240     -0.378638
  H       1.084497     -2.359984      1.302410
  H       0.035929     -0.010701      1.860677
  H      -1.022616     -1.363533      1.486005
  H      -0.459368      1.614535     -1.523254
  H       0.360636      0.074491     -1.760039
  H       1.495310      2.236384     -0.734591
  H       3.283415      1.033638     -0.109224
  H       2.523270      0.007798     -1.337878
  H      -2.020383      2.077317      0.128002
  H      -2.099648      1.105662      1.623406
  H      -3.771970      0.663285     -0.635069
  H      -2.155177     -1.674388     -0.655451
  H      -2.067102     -0.388221     -1.890510
26
Coordinates from ORCA-job file E -424.202859792909
  C       2.266831     -0.693057      0.695975
  C       0.959388     -1.497736      0.625769
  C      -0.269491     -0.678590      1.052452
  C      -0.932216      0.152284     -0.052432
  C       0.071938      0.826350     -0.991715
  N       1.252080      1.356118     -0.309418
  C       2.391683      0.436496     -0.328356
  C      -2.056837      1.059505      0.518584
  N      -3.082297      0.134330     -0.014431
  C      -2.067843     -0.587998     -0.811001
  H       2.357320     -0.267009      1.703938
  H       3.120121     -1.370618      0.555942
  H       0.817016     -1.912852     -0.382864
  H       1.058802     -2.359325      1.297500
  H       0.032952      0.004156      1.856426
  H      -1.037091     -1.338106      1.477044
  H      -0.436513      1.643101     -1.519058
  H       0.370205      0.096801     -1.767264
  H       1.526887      2.236224     -0.727735
  H       3.297647      1.012402     -0.105107
  H       2.526251     -0.004314     -1.334996
  H      -2.077078      2.064805      0.075681
  H      -2.080840      1.150943      1.611600
  H      -3.822224      0.570053     -0.554779
  H      -2.097867     -1.678321     -0.685167
  H      -2.088622     -0.355842     -1.886389
26
Coordinates from ORCA-job file E -424.203154199350
  C       2.263305     -0.701669      0.699640
  C       0.948466     -1.495150      0.627229
  C      -0.273466     -0.663558      1.048122
  C      -0.928396      0.163469     -0.064571
  C       0.082280      0.839674     -0.995099
  N       1.263888      1.354984     -0.303474
  C       2.396375      0.427444     -0.324342
  C      -2.059231      1.060300      0.506676
  N      -3.066892      0.088637      0.026910
  C      -2.060819     -0.584973     -0.819983
  H       2.359578     -0.277714      1.708053
  H       3.109691     -1.387492      0.558049
  H       0.803946     -1.910510     -0.380954
  H       1.039279     -2.355695      1.301715
  H       0.035203      0.023724      1.846007
  H      -1.046451     -1.313222      1.478053
  H      -0.417902      1.665479     -1.515881
  H       0.376752      0.116152     -1.777902
  H       1.546714      2.235551     -0.715091
  H       3.307086      0.995598     -0.099978
  H       2.528684     -0.012520     -1.331546
  H      -2.116566      2.046068      0.024489
  H      -2.061850      1.192912      1.595383
  H      -3.856753      0.484057     -0.471368
  H      -2.061379     -1.679704     -0.734668
  H      -2.111341     -0.312041     -1.885268
26
Coordinates from ORCA-job file E -424.202765631942
  C       2.256164     -0.705187      0.694948
  C       0.932420     -1.486433      0.645190
  C      -0.280540     -0.646975      1.070071
  C      -0.930448      0.189494     -0.040016
  C       0.081404      0.867918     -0.969235
  N       1.292198      1.364806     -0.320406
  C       2.397681      0.405161     -0.347526
  C      -2.085177      1.052446      0.521423
  N      -3.057671      0.033911      0.029930
  C      -2.013522     -0.573845     -0.840572
  H       2.357495     -0.260106      1.693923
  H       3.097695     -1.398601      0.564234
  H       0.772357     -1.903912     -0.359694
  H       1.023601     -2.348752      1.317616
  H       0.030962      0.028466      1.878112
  H      -1.063361     -1.294467      1.485019
  H      -0.424286      1.700588     -1.473908
  H       0.340067      0.139061     -1.760829
  H       1.583028      2.223721     -0.766079
  H       3.326877      0.954515     -0.155415
  H       2.491939     -0.057482     -1.349367
  H      -2.142563      2.044265      0.045591
  H      -2.111740      1.194175      1.605943
  H      -3.846779      0.410494     -0.469793
  H      -1.984986     -1.668838     -0.799888
  H      -2.042612     -0.264625     -1.899071
26
Coordinates from ORCA-job file E -424.203207711009
  C       2.252357     -0.716820      0.696432
  C       0.921625     -1.484521      0.640974
  C      -0.283495     -0.631658      1.062864
  C      -0.924169      0.202140     -0.054059
  C       0.094141      0.882440     -0.974152
  N       1.303888      1.364119     -0.310715
  C       2.403619      0.397737     -0.340149
  C      -2.089481      1.055489      0.504568
  N      -3.036931     -0.006482      0.070363
  C      -2.009649     -0.573050     -0.840454
  H       2.358101     -0.279185      1.698128
  H       3.086934     -1.417920      0.561411
  H       0.761309     -1.899041     -0.365249
  H       1.000910     -2.348006      1.313225
  H       0.034523      0.047539      1.864695
  H      -1.072458     -1.268028      1.482768
  H      -0.401452      1.724988     -1.472034
  H       0.354428      0.161876     -1.772626
  H       1.605077      2.226156     -0.744533
  H       3.335869      0.939763     -0.142059
  H       2.498359     -0.059541     -1.344338
  H      -2.191646      2.020269     -0.017033
  H      -2.094316      1.242721      1.583279
  H      -3.876436      0.321478     -0.384243
  H      -1.950567     -1.668088     -0.829049
  H      -2.080341     -0.234572     -1.887814
26
Coordinates from ORCA-job file E -424.203416104276
  C       2.259012     -0.717942      0.698044
  C       0.933758     -1.491916      0.628878
  C      -0.275528     -0.641449      1.051399
  C      -0.920702      0.184596     -0.067536
  C       0.093812      0.869162     -0.987940
  N       1.287610      1.357532     -0.297416
  C       2.403775      0.409544     -0.325557
  C      -2.078209      1.058285      0.491809
  N      -3.050128      0.028127      0.065584
  C      -2.039899     -0.584619     -0.821037
  H       2.360218     -0.294121      1.705897
  H       3.097984     -1.412773      0.555870
  H       0.783060     -1.903740     -0.380149
  H       1.011807     -2.355577      1.300598
  H       0.045313      0.047554      1.842435
  H      -1.057870     -1.276103      1.485148
  H      -0.399854      1.713312     -1.484992
  H       0.373836      0.160136     -1.789372
  H       1.585476      2.233566     -0.708439
  H       3.325549      0.962714     -0.109445
  H       2.518644     -0.032874     -1.333982
  H      -2.180545      2.014260     -0.042681
  H      -2.070151      1.245619      1.572686
  H      -3.885104      0.375058     -0.396668
  H      -1.999441     -1.680974     -0.780361
  H      -2.122221     -0.267577     -1.872573
26
Coordinates from ORCA-job file E -424.203508452937
  C       2.255212     -0.722267      0.698107
  C       0.925247     -1.488588      0.632705
  C      -0.279658     -0.632234      1.054059
  C      -0.919658      0.195870     -0.066483
  C       0.098641      0.880436     -0.983228
  N       1.299237      1.359640     -0.299279
  C       2.406424      0.401220     -0.328848
  C      -2.085359      1.058385      0.489099
  N      -3.036378     -0.002924      0.084850
  C      -2.026005     -0.579170     -0.828898
  H       2.359187     -0.295123      1.704314
  H       3.090223     -1.422168      0.557742
  H       0.770911     -1.900474     -0.375767
  H       0.999270     -2.352685      1.304400
  H       0.042712      0.054523      1.846707
  H      -1.066805     -1.263316      1.484430
  H      -0.392633      1.728397     -1.476019
  H       0.370634      0.170944     -1.787230
  H       1.602228      2.231498     -0.714561
  H       3.333789      0.947210     -0.118705
  H       2.512555     -0.045937     -1.336280
  H      -2.204040      2.003494     -0.062474
  H      -2.075907      1.268923      1.565230
  H      -3.892731      0.316661     -0.354605
  H      -1.967598     -1.675215     -0.816782
  H      -2.119295     -0.237300     -1.872286
26
Coordinates from ORCA-job file E -424.203508294786
  C       2.255772     -0.721288      0.697806
  C       0.926565     -1.488967      0.632764
  C      -0.279087     -0.634023      1.054816
  C      -0.920094      0.194475     -0.064850
  C       0.097461      0.878779     -0.982679
  N       1.298033      1.359552     -0.299894
  C       2.406002      0.402069     -0.329405
  C      -2.084996      1.058410      0.490192
  N      -3.038600      0.001093      0.081453
  C      -2.026692     -0.579269     -0.828340
  H       2.359161     -0.293619      1.703861
  H       3.091538     -1.420356      0.557827
  H       0.772195     -1.900923     -0.375672
  H       1.001784     -2.353127      1.304256
  H       0.042617      0.052212      1.848214
  H      -1.065530     -1.266343      1.484686
  H      -0.394847      1.725814     -1.476070
  H       0.369597      0.168612     -1.786014
  H       1.599901      2.231568     -0.715596
  H       3.332932      0.948892     -0.119504
  H       2.512328     -0.045236     -1.336759
  H      -2.199536      2.005498     -0.058814
  H      -2.077602      1.266022      1.566879
  H      -3.890777      0.325212     -0.362587
  H      -1.971453     -1.675418     -0.813567
  H      -2.116471     -0.239838     -1.872804
