43
Coordinates from ORCA-job file E -1854.968435850251
  C       3.455700      0.597100     -4.114300
  O       3.613900      0.183600     -2.760900
  C       2.585700      0.178400     -1.805800
  C       2.888400     -0.254600     -0.512800
  C       1.901100     -0.280900      0.488600
  O       2.182500     -0.711400      1.796000
  C       3.458200     -1.156900      2.244100
  C       0.595500      0.135700      0.180200
  S      -0.635500      0.107300      1.443100
  C      -1.828400     -1.174300      1.360700
  C      -1.662700     -2.327200      2.137500
  C      -2.607000     -3.356700      2.074300
  C      -3.720200     -3.236100      1.234700
  Cl     -4.904400     -4.527500      1.155300
  C      -3.887500     -2.083300      0.459000
  C      -2.943600     -1.053500      0.521700
  C      -1.073700      1.594200      2.346400
  C      -1.948300      2.517900      1.532100
  O      -0.935200      3.484300      1.402400
  C      -0.056700      2.698800      2.169200
  C       0.274000      0.568400     -1.118000
  O      -1.043800      0.964700     -1.393300
  C      -1.507400      1.424300     -2.658200
  C       1.275700      0.589600     -2.106300
  H       3.136700      1.660100     -4.154200
  H       4.427700      0.498300     -4.639400
  H       2.708800     -0.046500     -4.625500
  H       3.900900     -0.568800     -0.298900
  H       4.206400     -0.343600      2.135500
  H       3.775600     -2.050100      1.665700
  H       3.388700     -1.434500      3.315700
  H      -0.802900     -2.428600      2.787900
  H      -2.472600     -4.246200      2.676500
  H      -4.747400     -1.984200     -0.191100
  H      -3.085600     -0.165600     -0.079300
  H      -2.797800      2.912900      2.130200
  H      -2.262400      2.125800      0.542500
  H       0.851900      2.428200      1.590000
  H       0.179600      3.197900      3.133900
  H      -0.957900      2.342200     -2.955700
  H      -1.375600      0.631500     -3.424300
  H      -2.587000      1.666600     -2.580400
  H       1.036700      0.922500     -3.105100
43
Coordinates from ORCA-job file E -1854.995512658919
  C       3.301230      0.569222     -4.028156
  O       3.553768      0.153830     -2.701580
  C       2.561657      0.155493     -1.773817
  C       2.890796     -0.267408     -0.485587
  C       1.913881     -0.286745      0.511678
  O       2.193612     -0.689706      1.778249
  C       3.496129     -1.109127      2.129074
  C       0.602903      0.120275      0.218014
  S      -0.619230      0.110475      1.497480
  C      -1.820240     -1.162813      1.355285
  C      -1.677558     -2.314649      2.133712
  C      -2.617768     -3.338130      2.038554
  C      -3.697353     -3.205360      1.164162
  Cl     -4.872528     -4.486402      1.047627
  C      -3.845101     -2.057569      0.383454
  C      -2.904029     -1.033840      0.478609
  C      -1.119926      1.602739      2.353378
  C      -1.954668      2.541544      1.477599
  O      -0.907957      3.506085      1.403606
  C      -0.070364      2.710794      2.232397
  C       0.280231      0.539265     -1.080396
  O      -1.003845      0.914670     -1.318842
  C      -1.407538      1.356102     -2.599058
  C       1.256836      0.560903     -2.079239
  H       2.965771      1.620475     -4.048852
  H       4.241961      0.483579     -4.588140
  H       2.542130     -0.077683     -4.500728
  H       3.912960     -0.576951     -0.276525
  H       4.221850     -0.291342      1.979503
  H       3.793396     -1.990052      1.534520
  H       3.481201     -1.383979      3.192156
  H      -0.833472     -2.416002      2.814286
  H      -2.508180     -4.235899      2.644312
  H      -4.689670     -1.960300     -0.296640
  H      -3.019800     -0.137898     -0.128600
  H      -2.835060      2.951312      2.011591
  H      -2.227809      2.159168      0.476980
  H       0.874633      2.438761      1.721523
  H       0.124815      3.218025      3.197159
  H      -0.846557      2.260040     -2.891349
  H      -1.259596      0.560099     -3.348684
  H      -2.476571      1.601090     -2.543081
  H       1.005159      0.887707     -3.085932
43
Coordinates from ORCA-job file E -1855.005603680486
  C       3.214789      0.543906     -4.004973
  O       3.509536      0.136538     -2.687061
  C       2.537335      0.141573     -1.767110
  C       2.903306     -0.268145     -0.480433
  C       1.947054     -0.288578      0.535734
  O       2.233606     -0.667324      1.786615
  C       3.548576     -1.070385      2.099021
  C       0.621692      0.102315      0.262061
  S      -0.570515      0.102224      1.575826
  C      -1.790931     -1.148640      1.356134
  C      -1.690941     -2.306858      2.129877
  C      -2.640450     -3.314703      1.991155
  C      -3.680780     -3.152894      1.077433
  Cl     -4.866086     -4.410534      0.910388
  C      -3.787195     -2.000671      0.298616
  C      -2.836065     -0.993864      0.438704
  C      -1.155021      1.599539      2.349197
  C      -1.935537      2.530043      1.399307
  O      -0.872786      3.495941      1.378971
  C      -0.089674      2.710549      2.282569
  C       0.272548      0.507440     -1.037135
  O      -1.006074      0.858825     -1.226664
  C      -1.425628      1.292958     -2.502336
  C       1.223994      0.532942     -2.059667
  H       2.868255      1.588661     -4.025827
  H       4.145088      0.462721     -4.576232
  H       2.453244     -0.108864     -4.458758
  H       3.933960     -0.562123     -0.295803
  H       4.265192     -0.253316      1.923744
  H       3.840682     -1.952500      1.508657
  H       3.553029     -1.331541      3.162255
  H      -0.872726     -2.421666      2.842087
  H      -2.572153     -4.221602      2.592290
  H      -4.606670     -1.889923     -0.412037
  H      -2.909746     -0.088859     -0.164456
  H      -2.849028      2.955566      1.854044
  H      -2.153288      2.141801      0.390492
  H       0.892876      2.436056      1.853630
  H       0.052108      3.239523      3.242224
  H      -0.880316      2.199496     -2.805710
  H      -1.282164      0.502237     -3.254377
  H      -2.492697      1.524462     -2.420206
  H       0.949701      0.847471     -3.062548
43
Coordinates from ORCA-job file E -1855.012078634274
  C       3.165338      0.506260     -4.018416
  O       3.481038      0.124769     -2.696548
  C       2.518537      0.133039     -1.768066
  C       2.916547     -0.253180     -0.481218
  C       1.980698     -0.276565      0.553755
  O       2.287222     -0.631425      1.804403
  C       3.614599     -1.009066      2.099834
  C       0.639940      0.088700      0.299396
  S      -0.513317      0.082897      1.659376
  C      -1.761450     -1.132383      1.357761
  C      -1.705545     -2.307099      2.110474
  C      -2.672426     -3.291544      1.927136
  C      -3.683019     -3.085588      0.989848
  Cl     -4.890936     -4.311056      0.768218
  C      -3.746490     -1.917233      0.231032
  C      -2.778296     -0.934795      0.417190
  C      -1.178340      1.574753      2.354580
  C      -1.911397      2.505170      1.362264
  O      -0.847833      3.476571      1.403010
  C      -0.115315      2.694988      2.356423
  C       0.263736      0.473862     -1.002238
  O      -1.022657      0.798167     -1.169431
  C      -1.470821      1.212645     -2.443727
  C       1.194690      0.500849     -2.044841
  H       2.802626      1.544072     -4.055064
  H       4.093363      0.427900     -4.592441
  H       2.409761     -0.163502     -4.454968
  H       3.956634     -0.526062     -0.318479
  H       4.316521     -0.185611      1.901744
  H       3.913397     -1.893716      1.518266
  H       3.633792     -1.253315      3.166135
  H      -0.908779     -2.450832      2.842396
  H      -2.643690     -4.212576      2.510531
  H      -4.545957     -1.777080     -0.497555
  H      -2.813718     -0.015906     -0.167001
  H      -2.850801      2.931917      1.757324
  H      -2.079839      2.125643      0.343192
  H       0.898158      2.431822      1.999098
  H      -0.028368      3.230086      3.318609
  H      -0.948241      2.125080     -2.765464
  H      -1.325982      0.419692     -3.191788
  H      -2.539724      1.423535     -2.338765
  H       0.896442      0.795914     -3.046284
43
Coordinates from ORCA-job file E -1855.016564924785
  C       3.200964      0.455540     -4.040289
  O       3.501515      0.090088     -2.708727
  C       2.525608      0.116553     -1.793862
  C       2.917788     -0.257126     -0.500032
  C       1.978134     -0.268425      0.530895
  O       2.271082     -0.609919      1.788000
  C       3.598219     -0.988129      2.092592
  C       0.631200      0.094780      0.272115
  S      -0.479660      0.085485      1.694814
  C      -1.755415     -1.112139      1.357441
  C      -1.658827     -2.308702      2.071170
  C      -2.622698     -3.299447      1.899789
  C      -3.672951     -3.071423      1.013824
  Cl     -4.879297     -4.300224      0.803394
  C      -3.784164     -1.879887      0.298284
  C      -2.818224     -0.893006      0.473401
  C      -1.217524      1.536108      2.357899
  C      -1.949537      2.500737      1.395267
  O      -0.894384      3.483761      1.498352
  C      -0.172951      2.675248      2.441837
  C       0.269884      0.474844     -1.041348
  O      -1.008844      0.810104     -1.226838
  C      -1.435536      1.224872     -2.511665
  C       1.206398      0.487832     -2.082174
  H       2.840082      1.492366     -4.097285
  H       4.138746      0.365765     -4.595912
  H       2.449199     -0.216657     -4.478323
  H       3.958475     -0.528479     -0.339281
  H       4.304592     -0.170714      1.888601
  H       3.899513     -1.878152      1.521714
  H       3.604328     -1.219664      3.161472
  H      -0.829435     -2.463555      2.764293
  H      -2.564389     -4.239198      2.450527
  H      -4.620013     -1.727711     -0.385870
  H      -2.891905      0.044498     -0.069961
  H      -2.901310      2.904669      1.782932
  H      -2.109125      2.176871      0.359076
  H       0.860751      2.451249      2.118000
  H      -0.111718      3.181193      3.421568
  H      -0.900522      2.130371     -2.830020
  H      -1.288515      0.430159     -3.256297
  H      -2.503551      1.443744     -2.412778
  H       0.914117      0.775520     -3.086893
43
Coordinates from ORCA-job file E -1855.019864155363
  C       3.149579      0.443186     -4.049688
  O       3.479541      0.099749     -2.718670
  C       2.515859      0.114551     -1.781436
  C       2.928354     -0.235286     -0.489241
  C       2.000051     -0.253825      0.550390
  O       2.327075     -0.576970      1.812577
  C       3.667654     -0.921055      2.103231
  C       0.642720      0.076443      0.304472
  S      -0.441825      0.057653      1.757267
  C      -1.740564     -1.101581      1.362712
  C      -1.671932     -2.323359      2.037135
  C      -2.653332     -3.290918      1.830308
  C      -3.696221     -3.014760      0.949008
  Cl     -4.928432     -4.213171      0.689645
  C      -3.779575     -1.795998      0.275209
  C      -2.795853     -0.833072      0.485107
  C      -1.229643      1.508725      2.320157
  C      -1.853310      2.474215      1.296371
  O      -0.817220      3.452729      1.510443
  C      -0.206614      2.646648      2.524576
  C       0.261166      0.436850     -1.003170
  O      -1.032112      0.748677     -1.185155
  C      -1.490639      1.143549     -2.465745
  C       1.187274      0.455312     -2.053953
  H       2.761700      1.471529     -4.109798
  H       4.079094      0.370179     -4.624013
  H       2.405311     -0.253156     -4.465701
  H       3.976789     -0.482537     -0.338047
  H       4.349817     -0.087187      1.877917
  H       3.979729     -1.809947      1.534080
  H       3.699426     -1.142114      3.175248
  H      -0.850074     -2.517033      2.728276
  H      -2.614464     -4.248097      2.350101
  H      -4.609493     -1.604258     -0.404942
  H      -2.853918      0.124090     -0.025776
  H      -2.838979      2.878769      1.590475
  H      -1.909013      2.153476      0.244743
  H       0.857647      2.426136      2.315591
  H      -0.254271      3.152085      3.507234
  H      -0.977486      2.057474     -2.800017
  H      -1.339062      0.343353     -3.205327
  H      -2.562154      1.342400     -2.353082
  H       0.877500      0.726345     -3.058813
43
Coordinates from ORCA-job file E -1855.022476653106
  C       3.141742      0.411342     -4.063497
  O       3.484022      0.114521     -2.724765
  C       2.518163      0.115386     -1.788740
  C       2.936875     -0.186477     -0.486888
  C       2.002986     -0.212625      0.546985
  O       2.337424     -0.488719      1.820261
  C       3.687735     -0.774082      2.127778
  C       0.636221      0.063488      0.289660
  S      -0.440383      0.048439      1.758127
  C      -1.760931     -1.080917      1.336238
  C      -1.666418     -2.348666      1.916741
  C      -2.660132     -3.299070      1.688232
  C      -3.743466     -2.958268      0.881833
  Cl     -4.992831     -4.133257      0.591517
  C      -3.854174     -1.691538      0.307207
  C      -2.857157     -0.747375      0.536590
  C      -1.215460      1.490026      2.323742
  C      -1.736073      2.543941      1.335909
  O      -0.687618      3.465300      1.686742
  C      -0.185896      2.577533      2.690606
  C       0.248429      0.372306     -1.025230
  O      -1.057634      0.613588     -1.226348
  C      -1.529141      0.942312     -2.519831
  C       1.178584      0.396118     -2.072654
  H       2.710754      1.420881     -4.148009
  H       4.073322      0.363586     -4.637255
  H       2.426962     -0.325456     -4.461632
  H       3.993179     -0.389275     -0.325982
  H       4.338499      0.079115      1.882289
  H       4.035621     -1.665618      1.583869
  H       3.722146     -0.964573      3.205674
  H      -0.813228     -2.593583      2.551228
  H      -2.599663     -4.291697      2.133883
  H      -4.716991     -1.448475     -0.312718
  H      -2.940774      0.246890      0.103474
  H      -2.725712      2.963447      1.596206
  H      -1.733287      2.301795      0.263036
  H       0.886350      2.338711      2.553540
  H      -0.299052      3.019580      3.698869
  H      -1.060046      1.869359     -2.882475
  H      -1.334340      0.126195     -3.231669
  H      -2.609885      1.090916     -2.417335
  H       0.861376      0.624696     -3.085509
43
Coordinates from ORCA-job file E -1855.024845411088
  C       3.115488      0.355556     -4.066564
  O       3.473781      0.098439     -2.725002
  C       2.514420      0.103758     -1.783788
  C       2.940072     -0.164159     -0.476580
  C       2.005086     -0.183597      0.556300
  O       2.344011     -0.428076      1.834985
  C       3.696367     -0.685884      2.151887
  C       0.636078      0.063563      0.295660
  S      -0.442123      0.059706      1.767786
  C      -1.763873     -1.062627      1.324540
  C      -1.625543     -2.374375      1.785579
  C      -2.618372     -3.317990      1.525430
  C      -3.748632     -2.925011      0.813156
  Cl     -4.997349     -4.089251      0.477002
  C      -3.906170     -1.611658      0.368662
  C      -2.908383     -0.676364      0.624471
  C      -1.209563      1.499435      2.298209
  C      -1.640861      2.591398      1.314927
  O      -0.613637      3.483678      1.772550
  C      -0.206503      2.560215      2.786894
  C       0.240677      0.338526     -1.019083
  O      -1.069200      0.549138     -1.221243
  C      -1.552666      0.832306     -2.518225
  C       1.168894      0.355216     -2.068063
  H       2.663178      1.353777     -4.171307
  H       4.041212      0.313119     -4.649560
  H       2.412094     -0.404478     -4.440397
  H       3.999237     -0.347026     -0.311582
  H       4.332932      0.172895      1.889937
  H       4.057984     -1.582969      1.626555
  H       3.732890     -0.853796      3.233083
  H      -0.735154     -2.663883      2.346243
  H      -2.518876     -4.345880      1.873912
  H      -4.807395     -1.325073     -0.173422
  H      -3.034425      0.353356      0.292103
  H      -2.642011      3.015675      1.520028
  H      -1.562487      2.382186      0.237203
  H       0.871068      2.313640      2.727706
  H      -0.399730      2.969754      3.797045
  H      -1.106799      1.759634     -2.908920
  H      -1.343310      0.000960     -3.208097
  H      -2.635988      0.959441     -2.416187
  H       0.843682      0.556528     -3.084135
43
Coordinates from ORCA-job file E -1855.026785040722
  C       3.049850      0.268148     -4.066091
  O       3.436762      0.075319     -2.722747
  C       2.492202      0.084851     -1.769195
  C       2.941230     -0.127211     -0.458343
  C       2.016421     -0.139832      0.584097
  O       2.373605     -0.333935      1.865162
  C       3.735001     -0.538012      2.176487
  C       0.641215      0.057445      0.331166
  S      -0.442415      0.064278      1.800232
  C      -1.761497     -1.041445      1.307122
  C      -1.604417     -2.390035      1.630556
  C      -2.598508     -3.311054      1.300684
  C      -3.748464     -2.858472      0.659022
  Cl     -4.994493     -3.991695      0.223177
  C      -3.925314     -1.506580      0.358845
  C      -2.927200     -0.594940      0.683663
  C      -1.178330      1.510232      2.295429
  C      -1.517221      2.639993      1.322960
  O      -0.518129      3.497302      1.888092
  C      -0.206653      2.535084      2.901687
  C       0.219856      0.279613     -0.982997
  O      -1.096860      0.449154     -1.169722
  C      -1.605420      0.664738     -2.467177
  C       1.135598      0.288536     -2.043063
  H       2.562745      1.246003     -4.201760
  H       3.965275      0.234254     -4.665214
  H       2.366378     -0.527785     -4.399862
  H       4.006488     -0.276023     -0.297698
  H       4.339685      0.333877      1.884369
  H       4.120754     -1.437854      1.673558
  H       3.788344     -0.673320      3.261060
  H      -0.698935     -2.729718      2.137677
  H      -2.482916     -4.367859      1.542465
  H      -4.840041     -1.172587     -0.131852
  H      -3.069610      0.462229      0.456905
  H      -2.525348      3.073751      1.467710
  H      -1.361159      2.455628      0.247027
  H       0.868339      2.273887      2.917529
  H      -0.479559      2.912410      3.905503
  H      -1.197402      1.589273     -2.903521
  H      -1.378941     -0.187578     -3.125560
  H      -2.690990      0.760647     -2.357659
  H       0.790177      0.449082     -3.060022
43
Coordinates from ORCA-job file E -1855.028650907332
  C       3.032209      0.267967     -4.051470
  O       3.417165      0.074046     -2.707280
  C       2.472322      0.065684     -1.754160
  C       2.930961     -0.130416     -0.442804
  C       2.011673     -0.147812      0.605070
  O       2.372831     -0.313456      1.888773
  C       3.739563     -0.473320      2.202881
  C       0.634719      0.024449      0.354521
  S      -0.459421      0.060006      1.809063
  C      -1.766362     -1.052396      1.302998
  C      -1.573748     -2.416141      1.513907
  C      -2.573742     -3.324907      1.165675
  C      -3.762344     -2.844003      0.622449
  Cl     -5.016858     -3.960829      0.174000
  C      -3.971532     -1.475922      0.433534
  C      -2.967907     -0.577446      0.776632
  C      -1.164138      1.532801      2.238405
  C      -1.393909      2.665033      1.236782
  O      -0.417237      3.494524      1.879255
  C      -0.218283      2.529935      2.921560
  C       0.199264      0.235437     -0.961109
  O      -1.118955      0.410200     -1.136549
  C      -1.633089      0.612506     -2.433716
  C       1.111075      0.248938     -2.025241
  H       2.534134      1.240609     -4.185145
  H       3.949766      0.248933     -4.648107
  H       2.360273     -0.534524     -4.392504
  H       3.999211     -0.258155     -0.283441
  H       4.319355      0.412594      1.902332
  H       4.153885     -1.367468      1.712881
  H       3.796139     -0.593310      3.289106
  H      -0.640081     -2.779041      1.950103
  H      -2.433572     -4.394775      1.323449
  H      -4.914735     -1.119911      0.017325
  H      -3.132496      0.492178      0.638832
  H      -2.397168      3.129305      1.293505
  H      -1.156098      2.459345      0.178363
  H       0.842881      2.237634      3.025636
  H      -0.568041      2.920034      3.895181
  H      -1.228661      1.532481     -2.882497
  H      -1.408939     -0.246306     -3.084504
  H      -2.718749      0.708775     -2.323495
  H       0.758740      0.406523     -3.040498
43
Coordinates from ORCA-job file E -1855.030104532482
  C       3.012365      0.257414     -4.031023
  O       3.402106      0.076213     -2.685442
  C       2.457545      0.062079     -1.730639
  C       2.926644     -0.114499     -0.420316
  C       2.015797     -0.138909      0.634514
  O       2.382760     -0.286748      1.919613
  C       3.755768     -0.418870      2.226275
  C       0.633407      0.002571      0.387101
  S      -0.460491      0.051217      1.835935
  C      -1.771312     -1.043098      1.297335
  C      -1.542391     -2.414447      1.363972
  C      -2.549355     -3.305177      0.988262
  C      -3.776003     -2.798518      0.567092
  Cl     -5.039572     -3.897050      0.099740
  C      -4.017529     -1.423411      0.517432
  C      -3.006115     -0.542705      0.885982
  C      -1.153153      1.546601      2.205245
  C      -1.305601      2.666612      1.174543
  O      -0.352679      3.488447      1.866429
  C      -0.229024      2.533140      2.931397
  C       0.186159      0.194714     -0.932059
  O      -1.137737      0.342465     -1.100220
  C      -1.662612      0.515163     -2.399920
  C       1.093088      0.215478     -2.000814
  H       2.506192      1.225198     -4.170887
  H       3.930859      0.241550     -4.626898
  H       2.346709     -0.553289     -4.365258
  H       3.998226     -0.221119     -0.267333
  H       4.319545      0.473340      1.913662
  H       4.185813     -1.310234      1.744796
  H       3.819238     -0.525919      3.313956
  H      -0.577348     -2.796977      1.704936
  H      -2.386415     -4.382084      1.034267
  H      -4.989233     -1.050228      0.192568
  H      -3.184180      0.532933      0.859035
  H      -2.300050      3.151054      1.155397
  H      -1.005813      2.440557      0.137097
  H       0.818532      2.224770      3.102273
  H      -0.628194      2.945063      3.876618
  H      -1.282446      1.439580     -2.860567
  H      -1.418487     -0.344435     -3.042234
  H      -2.749931      0.585326     -2.285511
  H       0.735018      0.356033     -3.016649
43
Coordinates from ORCA-job file E -1855.031327979349
  C       3.005044      0.224864     -4.018849
  O       3.391940      0.042680     -2.671911
  C       2.445806      0.050475     -1.716854
  C       2.914023     -0.130125     -0.407225
  C       2.005906     -0.139010      0.649864
  O       2.366909     -0.298604      1.935723
  C       3.737797     -0.465652      2.239630
  C       0.625164      0.016929      0.400729
  S      -0.479565      0.085804      1.832061
  C      -1.771001     -1.039276      1.300766
  C      -1.478461     -2.398636      1.253822
  C      -2.472623     -3.304722      0.880370
  C      -3.743865     -2.825545      0.574721
  Cl     -4.989790     -3.950370      0.118301
  C      -4.043822     -1.462277      0.631360
  C      -3.045988     -0.565534      1.001036
  C      -1.170936      1.596680      2.147276
  C      -1.242414      2.701517      1.093463
  O      -0.348226      3.534421      1.848797
  C      -0.291307      2.583101      2.924596
  C       0.178435      0.215115     -0.918865
  O      -1.143999      0.382149     -1.080899
  C      -1.670628      0.550721     -2.381857
  C       1.084494      0.223616     -1.988505
  H       2.519563      1.202514     -4.163283
  H       3.923823      0.185699     -4.613376
  H       2.322361     -0.573718     -4.347873
  H       3.983988     -0.255373     -0.257404
  H       4.324399      0.411067      1.925774
  H       4.145493     -1.367553      1.758274
  H       3.799830     -0.574209      3.327367
  H      -0.477844     -2.758657      1.505124
  H      -2.266376     -4.374314      0.840935
  H      -5.046521     -1.112729      0.385196
  H      -3.255325      0.504003      1.056395
  H      -2.229218      3.187633      0.979708
  H      -0.856398      2.462809      0.087695
  H       0.742715      2.275918      3.165358
  H      -0.750056      3.003789      3.838654
  H      -1.279031      1.467430     -2.848637
  H      -1.437109     -0.315625     -3.018831
  H      -2.756434      0.634730     -2.264265
  H       0.729345      0.368063     -3.004663
43
Coordinates from ORCA-job file E -1855.032272383841
  C       2.990334      0.155293     -4.015464
  O       3.382065      0.002779     -2.665875
  C       2.436984      0.024380     -1.709027
  C       2.908859     -0.129586     -0.397547
  C       2.003431     -0.123000      0.660991
  O       2.366105     -0.260788      1.948888
  C       3.738428     -0.420848      2.251276
  C       0.621937      0.026230      0.410803
  S      -0.484914      0.109914      1.835670
  C      -1.777797     -1.012310      1.285207
  C      -1.442393     -2.350079      1.097359
  C      -2.428362     -3.256521      0.706508
  C      -3.731717     -2.800070      0.522513
  Cl     -4.967649     -3.929851      0.044970
  C      -4.071490     -1.459895      0.717341
  C      -3.081880     -0.561323      1.106895
  C      -1.170672      1.625853      2.132058
  C      -1.171544      2.746928      1.095820
  O      -0.345841      3.574426      1.930332
  C      -0.334294      2.591901      2.977682
  C       0.172198      0.197562     -0.909177
  O      -1.151668      0.355250     -1.067710
  C      -1.685417      0.485569     -2.370595
  C       1.075167      0.190064     -1.981316
  H       2.496500      1.125941     -4.177166
  H       3.908470      0.111271     -4.610420
  H       2.313176     -0.655115     -4.326216
  H       3.979742     -0.250528     -0.250622
  H       4.322343      0.451402      1.920906
  H       4.144958     -1.329532      1.781682
  H       3.803780     -0.512605      3.340170
  H      -0.415713     -2.690493      1.251991
  H      -2.192220     -4.310286      0.557561
  H      -5.098278     -1.130098      0.559413
  H      -3.312195      0.493397      1.270355
  H      -2.148375      3.230505      0.907780
  H      -0.702850      2.534149      0.118492
  H       0.688322      2.284245      3.263491
  H      -0.837583      2.987652      3.879658
  H      -1.302000      1.393449     -2.860966
  H      -1.445407     -0.394592     -2.985730
  H      -2.770874      0.563161     -2.249007
  H       0.718433      0.315999     -2.999274
43
Coordinates from ORCA-job file E -1855.032963885293
  C       2.978687      0.098905     -4.003194
  O       3.373918     -0.048496     -2.654656
  C       2.432692     -0.009194     -1.696761
  C       2.903724     -0.159725     -0.384100
  C       1.997579     -0.132351      0.672889
  O       2.356886     -0.261343      1.961155
  C       3.726234     -0.428604      2.269172
  C       0.620622      0.037497      0.421144
  S      -0.488865      0.142514      1.837357
  C      -1.772377     -0.994878      1.278624
  C      -1.399033     -2.299068      0.961661
  C      -2.373260     -3.212509      0.563228
  C      -3.703388     -2.799195      0.501426
  Cl     -4.926367     -3.938206      0.008949
  C      -4.078372     -1.496344      0.829205
  C      -3.099528     -0.587963      1.225739
  C      -1.171535      1.658706      2.099545
  C      -1.151138      2.776039      1.063185
  O      -0.387430      3.621973      1.935809
  C      -0.378399      2.631781      2.973968
  C       0.171747      0.209895     -0.896093
  O      -1.147997      0.391236     -1.053126
  C      -1.685089      0.494636     -2.356116
  C       1.073023      0.176868     -1.968796
  H       2.489592      1.071322     -4.167520
  H       3.893563      0.046883     -4.601890
  H       2.295828     -0.709291     -4.306636
  H       3.972904     -0.295189     -0.237380
  H       4.315478      0.438045      1.933824
  H       4.125737     -1.343508      1.805949
  H       3.788517     -0.513481      3.358448
  H      -0.350998     -2.604606      1.013903
  H      -2.108397     -4.238864      0.307687
  H      -5.126421     -1.201272      0.767917
  H      -3.349876      0.440955      1.495175
  H      -2.127173      3.237863      0.821273
  H      -0.624504      2.574699      0.111076
  H       0.644211      2.343377      3.279750
  H      -0.909652      3.008795      3.868158
  H      -1.291241      1.383287     -2.872397
  H      -1.458817     -0.405199     -2.947523
  H      -2.768605      0.590122     -2.233080
  H       0.717621      0.303689     -2.987248
43
Coordinates from ORCA-job file E -1855.033376830310
  C       2.995710      0.069768     -4.004045
  O       3.379104     -0.089039     -2.653239
  C       2.435741     -0.031880     -1.697878
  C       2.900511     -0.192688     -0.383554
  C       1.992692     -0.144880      0.671887
  O       2.346266     -0.284631      1.960532
  C       3.710769     -0.480331      2.274051
  C       0.620169      0.051539      0.416075
  S      -0.495455      0.178235      1.821024
  C      -1.767883     -0.987196      1.278228
  C      -1.370350     -2.261159      0.875170
  C      -2.336174     -3.191329      0.500378
  C      -3.682135     -2.825610      0.542364
  Cl     -4.895136     -3.987069      0.078937
  C      -4.078926     -1.557020      0.957572
  C      -3.107655     -0.629659      1.333014
  C      -1.187903      1.695210      2.046756
  C      -1.128268      2.815347      1.015725
  O      -0.466155      3.680755      1.950664
  C      -0.464707      2.674159      2.972077
  C       0.176378      0.233323     -0.903123
  O      -1.138540      0.447828     -1.064188
  C      -1.675227      0.547165     -2.368285
  C       1.080002      0.181298     -1.973487
  H       2.523973      1.050798     -4.167930
  H       3.913653      0.005382     -4.597153
  H       2.301745     -0.726026     -4.315149
  H       3.966406     -0.350343     -0.234817
  H       4.317831      0.375839      1.942860
  H       4.093102     -1.402397      1.810411
  H       3.767085     -0.568791      3.363588
  H      -0.311313     -2.527266      0.837915
  H      -2.054192     -4.194359      0.179000
  H      -5.138975     -1.301809      0.984484
  H      -3.367080      0.376927      1.667499
  H      -2.094379      3.245923      0.691597
  H      -0.515299      2.635924      0.112062
  H       0.554752      2.411489      3.311204
  H      -1.041181      3.016693      3.852060
  H      -1.269498      1.424389     -2.894561
  H      -1.462280     -0.361504     -2.951127
  H      -2.757346      0.659990     -2.246166
  H       0.730270      0.316803     -2.992730
43
Coordinates from ORCA-job file E -1855.033443450757
  C       3.013362      0.080500     -3.986665
  O       3.392215     -0.105526     -2.638697
  C       2.450206     -0.046857     -1.683780
  C       2.909061     -0.229326     -0.370139
  C       1.998505     -0.175384      0.683283
  O       2.349173     -0.332941      1.969803
  C       3.710131     -0.546753      2.284520
  C       0.631016      0.047349      0.426813
  S      -0.490270      0.190919      1.825054
  C      -1.759588     -0.986215      1.283345
  C      -1.364019     -2.232860      0.797218
  C      -2.332026     -3.167035      0.441604
  C      -3.680761     -2.835081      0.582427
  Cl     -4.897644     -3.996355      0.130595
  C      -4.073911     -1.598514      1.084328
  C      -3.099869     -0.666808      1.444164
  C      -1.193053      1.703086      2.002835
  C      -1.186867      2.792931      0.940361
  O      -0.589143      3.717749      1.859728
  C      -0.503925      2.732199      2.897038
  C       0.193098      0.249231     -0.890185
  O      -1.115659      0.490848     -1.052227
  C      -1.648817      0.606790     -2.355149
  C       1.097984      0.190908     -1.958617
  H       2.551628      1.068907     -4.134199
  H       3.930870      0.018172     -4.580464
  H       2.312013     -0.702597     -4.313013
  H       3.971931     -0.404517     -0.219102
  H       4.325743      0.307613      1.964482
  H       4.083387     -1.467744      1.811502
  H       3.763702     -0.647897      3.372988
  H      -0.305125     -2.475914      0.684436
  H      -2.049562     -4.147919      0.058166
  H      -5.134776     -1.368005      1.190121
  H      -3.357082      0.317770      1.841269
  H      -2.169004      3.158492      0.586529
  H      -0.545602      2.619219      0.055554
  H       0.539906      2.529366      3.204093
  H      -1.070161      3.053866      3.791064
  H      -1.232374      1.482405     -2.875763
  H      -1.446765     -0.300480     -2.943987
  H      -2.729633      0.732805     -2.234819
  H       0.751803      0.343407     -2.976812
43
Coordinates from ORCA-job file E -1855.033624528779
  C       3.025440      0.100915     -3.993049
  O       3.403863     -0.084337     -2.644751
  C       2.460045     -0.032653     -1.690464
  C       2.917978     -0.213059     -0.376601
  C       2.005752     -0.169818      0.676402
  O       2.356388     -0.327657      1.963661
  C       3.718988     -0.530296      2.280190
  C       0.636532      0.041423      0.418234
  S      -0.489590      0.179154      1.813309
  C      -1.766972     -0.992702      1.279887
  C      -1.387575     -2.249775      0.807382
  C      -2.367109     -3.175871      0.460370
  C      -3.712059     -2.828635      0.600592
  Cl     -4.941079     -3.979090      0.155167
  C      -4.090528     -1.580476      1.087289
  C      -3.105043     -0.656919      1.437197
  C      -1.188274      1.694507      2.002944
  C      -1.171587      2.795786      0.951785
  O      -0.602732      3.716153      1.893776
  C      -0.508523      2.714521      2.915362
  C       0.198933      0.239523     -0.900650
  O      -1.113387      0.463116     -1.065639
  C      -1.644568      0.572444     -2.370116
  C       1.106116      0.191043     -1.967504
  H       2.558722      1.087144     -4.140609
  H       3.944090      0.043749     -4.585958
  H       2.328372     -0.685494     -4.321151
  H       3.981933     -0.378907     -0.223251
  H       4.328178      0.329826      1.963103
  H       4.101833     -1.447112      1.806589
  H       3.771621     -0.632909      3.368765
  H      -0.332088     -2.508092      0.698527
  H      -2.095110     -4.162641      0.085032
  H      -5.148048     -1.334310      1.189151
  H      -3.353262      0.334840      1.821231
  H      -2.148409      3.155050      0.578246
  H      -0.506347      2.635693      0.081315
  H       0.538118      2.515158      3.215741
  H      -1.075687      3.015317      3.815737
  H      -1.237215      1.453308     -2.889515
  H      -1.430225     -0.332378     -2.958507
  H      -2.727351      0.685574     -2.253038
  H       0.759969      0.338689     -2.986484
43
Coordinates from ORCA-job file E -1855.033684797151
  C       3.028928      0.114957     -3.993097
  O       3.408905     -0.068567     -2.644820
  C       2.463748     -0.025859     -1.690835
  C       2.923600     -0.203474     -0.377498
  C       2.012213     -0.170376      0.676559
  O       2.363929     -0.325975      1.963844
  C       3.728553     -0.519198      2.278471
  C       0.640695      0.029071      0.419459
  S      -0.483491      0.166609      1.817355
  C      -1.768430     -0.996253      1.286004
  C      -1.399568     -2.256065      0.815059
  C      -2.386434     -3.172844      0.461925
  C      -3.728536     -2.812929      0.594179
  Cl     -4.964633     -3.953619      0.144351
  C      -4.097912     -1.559766      1.077708
  C      -3.105165     -0.646129      1.431760
  C      -1.180042      1.682988      2.007185
  C      -1.174700      2.784068      0.955082
  O      -0.622960      3.712530      1.900430
  C      -0.502040      2.707570      2.916935
  C       0.200987      0.222843     -0.900321
  O      -1.114124      0.433444     -1.063053
  C      -1.646389      0.546899     -2.367110
  C       1.108041      0.186087     -1.967701
  H       2.555010      1.097705     -4.140522
  H       3.948414      0.064547     -4.585292
  H       2.337665     -0.676069     -4.322241
  H       3.988993     -0.359953     -0.224339
  H       4.332607      0.343695      1.959377
  H       4.117527     -1.434091      1.806300
  H       3.782581     -0.619573      3.367162
  H      -0.345777     -2.524088      0.710315
  H      -2.120869     -4.161800      0.087484
  H      -5.153179     -1.302241      1.173489
  H      -3.348797      0.347904      1.812745
  H      -2.152677      3.130713      0.573519
  H      -0.500033      2.632878      0.089676
  H       0.551885      2.520952      3.199656
  H      -1.057633      2.998249      3.827373
  H      -1.244943      1.433869     -2.880596
  H      -1.426371     -0.352596     -2.961448
  H      -2.729789      0.652025     -2.248539
  H       0.760312      0.331665     -2.986290
43
Coordinates from ORCA-job file E -1855.033730964760
  C       3.033568      0.136260     -3.989419
  O       3.413770     -0.055946     -2.642410
  C       2.467688     -0.019914     -1.688857
  C       2.927046     -0.204844     -0.376507
  C       2.015376     -0.180538      0.677452
  O       2.365756     -0.343231      1.964301
  C       3.730489     -0.536366      2.278503
  C       0.643794      0.018036      0.420460
  S      -0.480352      0.160829      1.817952
  C      -1.767153     -1.001340      1.293626
  C      -1.404007     -2.264214      0.829006
  C      -2.394557     -3.178013      0.477023
  C      -3.735012     -2.811357      0.603604
  Cl     -4.974655     -3.949487      0.157903
  C      -4.099495     -1.553839      1.080799
  C      -3.103157     -0.643727      1.432477
  C      -1.173748      1.678392      2.000351
  C      -1.191572      2.771036      0.940229
  O      -0.662679      3.717691      1.881171
  C      -0.498455      2.716585      2.896379
  C       0.204447      0.218040     -0.898556
  O      -1.112167      0.422273     -1.059159
  C      -1.643097      0.551261     -2.362343
  C       1.111758      0.190707     -1.965708
  H       2.561761      1.120828     -4.131263
  H       3.952811      0.086963     -4.582057
  H       2.340344     -0.651115     -4.323149
  H       3.992451     -0.361120     -0.222999
  H       4.334477      0.328237      1.964084
  H       4.121032     -1.448490      1.802251
  H       3.783778     -0.641983      3.366728
  H      -0.351189     -2.537160      0.725923
  H      -2.131547     -4.169497      0.107281
  H      -5.153510     -1.290192      1.173693
  H      -3.345711      0.352836      1.807602
  H      -2.174013      3.094775      0.550365
  H      -0.507984      2.628171      0.079961
  H       0.566276      2.552526      3.151856
  H      -1.036354      2.998227      3.819885
  H      -1.245184      1.447526     -2.862254
  H      -1.417822     -0.338649     -2.969002
  H      -2.727118      0.649305     -2.243763
  H       0.764014      0.340318     -2.983718
43
Coordinates from ORCA-job file E -1855.033769195106
  C       3.031740      0.161125     -3.983568
  O       3.414265     -0.035449     -2.637877
  C       2.467362     -0.013601     -1.684304
  C       2.927935     -0.202738     -0.373096
  C       2.016184     -0.190894      0.680740
  O       2.367155     -0.355364      1.967387
  C       3.733468     -0.536190      2.281487
  C       0.643303     -0.002237      0.424139
  S      -0.478164      0.147836      1.822917
  C      -1.770487     -1.006260      1.299610
  C      -1.412378     -2.274471      0.847371
  C      -2.406066     -3.183856      0.491842
  C      -3.744495     -2.806259      0.601273
  Cl     -4.988047     -3.938046      0.149677
  C      -4.104428     -1.542539      1.066027
  C      -3.105175     -0.637804      1.422302
  C      -1.158937      1.670120      1.998768
  C      -1.196864      2.751480      0.929404
  O      -0.678587      3.713659      1.860695
  C      -0.474872      2.718183      2.875156
  C       0.202577      0.200773     -0.893471
  O      -1.115889      0.396293     -1.051963
  C      -1.644805      0.547442     -2.353593
  C       1.109972      0.188057     -1.960625
  H       2.553590      1.143417     -4.120063
  H       3.950775      0.120207     -4.577145
  H       2.343034     -0.628735     -4.320742
  H       3.994448     -0.351881     -0.219836
  H       4.329576      0.334911      1.969946
  H       4.132814     -1.442900      1.802133
  H       3.787404     -0.644897      3.369385
  H      -0.360496     -2.555532      0.756800
  H      -2.145910     -4.179809      0.132278
  H      -5.157297     -1.269715      1.144572
  H      -3.346282      0.362778      1.787448
  H      -2.183446      3.059120      0.536918
  H      -0.511181      2.611279      0.069806
  H       0.599116      2.569190      3.099768
  H      -0.989005      2.998195      3.812529
  H      -1.250763      1.455868     -2.834420
  H      -1.412810     -0.329219     -2.976812
  H      -2.729651      0.636557     -2.235386
  H       0.761416      0.341706     -2.977775
43
Coordinates from ORCA-job file E -1855.033808037829
  C       3.031094      0.167468     -3.982914
  O       3.412689     -0.030630     -2.637170
  C       2.465111     -0.011591     -1.684129
  C       2.925069     -0.205878     -0.373346
  C       2.012539     -0.198013      0.679785
  O       2.363045     -0.364675      1.966243
  C       3.729620     -0.541726      2.281109
  C       0.639509     -0.009622      0.423010
  S      -0.478872      0.143739      1.824264
  C      -1.771902     -1.009461      1.304389
  C      -1.410681     -2.284327      0.872933
  C      -2.401893     -3.196472      0.517991
  C      -3.740502     -2.814153      0.606451
  Cl     -4.981828     -3.948487      0.154582
  C      -4.103409     -1.543989      1.050356
  C      -3.106755     -0.636437      1.406945
  C      -1.155887      1.667737      1.999145
  C      -1.205929      2.744942      0.926935
  O      -0.684273      3.711705      1.851975
  C      -0.461841      2.717968      2.864222
  C       0.199708      0.199700     -0.893838
  O      -1.118529      0.396989     -1.052953
  C      -1.643235      0.568980     -2.353767
  C       1.107882      0.191227     -1.960605
  H       2.554764      1.150697     -4.118936
  H       3.950292      0.125098     -4.576136
  H       2.341070     -0.620975     -4.320724
  H       3.991580     -0.355373     -0.220381
  H       4.323229      0.331635      1.971033
  H       4.131772     -1.446476      1.800443
  H       3.783136     -0.651858      3.368873
  H      -0.358309     -2.568730      0.800751
  H      -2.140058     -4.198183      0.176203
  H      -5.156729     -1.268101      1.110739
  H      -3.350088      0.369466      1.755596
  H      -2.196240      3.047729      0.539864
  H      -0.525635      2.606009      0.062759
  H       0.616222      2.572763      3.071543
  H      -0.960888      2.998176      3.809674
  H      -1.244654      1.483214     -2.819704
  H      -1.412280     -0.299279     -2.989016
  H      -2.728136      0.659682     -2.237128
  H       0.760322      0.349313     -2.977367
43
Coordinates from ORCA-job file E -1855.033825687485
  C       3.029959      0.173475     -3.981278
  O       3.411251     -0.024444     -2.635514
  C       2.463367     -0.010451     -1.682799
  C       2.923172     -0.206125     -0.372068
  C       2.009525     -0.201730      0.680167
  O       2.360053     -0.368318      1.966690
  C       3.727016     -0.539055      2.283096
  C       0.636082     -0.018003      0.422752
  S      -0.481269      0.138239      1.824715
  C      -1.775742     -1.012471      1.305592
  C      -1.412688     -2.291800      0.887375
  C      -2.402507     -3.205159      0.532619
  C      -3.741066     -2.819335      0.608083
  Cl     -4.981880     -3.954603      0.156583
  C      -4.105290     -1.545564      1.039531
  C      -3.110039     -0.636428      1.396838
  C      -1.151418      1.665255      1.998682
  C      -1.208375      2.739025      0.924102
  O      -0.681210      3.707792      1.843686
  C      -0.445959      2.715335      2.853831
  C       0.196382      0.193138     -0.893422
  O      -1.122156      0.387600     -1.053600
  C      -1.642394      0.583325     -2.352670
  C       1.105748      0.189473     -1.959503
  H       2.552132      1.156054     -4.117042
  H       3.949270      0.132830     -4.574471
  H       2.341303     -0.616073     -4.319395
  H       3.990074     -0.352536     -0.218993
  H       4.316695      0.336751      1.972316
  H       4.133309     -1.442633      1.803727
  H       3.780330     -0.647623      3.371025
  H      -0.360212     -2.578779      0.828409
  H      -2.140530     -4.210795      0.202807
  H      -5.158766     -1.267990      1.088580
  H      -3.353594      0.372440      1.736866
  H      -2.201093      3.040039      0.541668
  H      -0.532853      2.598810      0.056154
  H       0.635083      2.569916      3.045778
  H      -0.931154      2.996400      3.806288
  H      -1.241234      1.505459     -2.800669
  H      -1.410512     -0.273910     -3.002428
  H      -2.727624      0.673061     -2.238170
  H       0.758911      0.349208     -2.976239
43
Coordinates from ORCA-job file E -1855.033838380733
  C       3.029795      0.170252     -3.981497
  O       3.410564     -0.026744     -2.635478
  C       2.462709     -0.012055     -1.682856
  C       2.922219     -0.208104     -0.371991
  C       2.008173     -0.202879      0.679981
  O       2.358532     -0.369320      1.966591
  C       3.725427     -0.539912      2.283472
  C       0.634894     -0.018033      0.422444
  S      -0.482679      0.139030      1.824569
  C      -1.776160     -1.013484      1.307091
  C      -1.410631     -2.292876      0.890427
  C      -2.398868     -3.207746      0.535784
  C      -3.738112     -2.823412      0.610102
  Cl     -4.977141     -3.960112      0.157334
  C      -4.104530     -1.549968      1.040212
  C      -3.110758     -0.638942      1.397486
  C      -1.153726      1.666135      1.997272
  C      -1.210330      2.739796      0.922165
  O      -0.679826      3.707832      1.840489
  C      -0.445810      2.715951      2.851115
  C       0.195368      0.192881     -0.893875
  O      -1.123022      0.387381     -1.054639
  C      -1.641140      0.595029     -2.352600
  C       1.105247      0.188645     -1.959644
  H       2.552317      1.152887     -4.118183
  H       3.949264      0.129062     -4.574423
  H       2.341102     -0.619425     -4.319232
  H       3.989057     -0.354918     -0.219003
  H       4.315140      0.335518      1.971723
  H       4.131731     -1.444226      1.805488
  H       3.778525     -0.647008      3.371568
  H      -0.357644     -2.578123      0.832575
  H      -2.135892     -4.213381      0.206778
  H      -5.158517     -1.274201      1.088157
  H      -3.354975      0.370032      1.736635
  H      -2.203354      3.041886      0.541480
  H      -0.536840      2.598207      0.052954
  H       0.635163      2.568574      3.042269
  H      -0.929501      2.998041      3.804041
  H      -1.235957      1.519031     -2.793180
  H      -1.412510     -0.258157     -3.008806
  H      -2.726139      0.688289     -2.238539
  H       0.758933      0.348366     -2.976553
43
Coordinates from ORCA-job file E -1855.033861529562
  C       3.031833      0.171465     -3.980564
  O       3.411554     -0.026412     -2.634447
  C       2.463250     -0.013305     -1.682373
  C       2.921924     -0.210873     -0.371359
  C       2.006826     -0.206825      0.679774
  O       2.356324     -0.374311      1.966548
  C       3.723212     -0.542949      2.284506
  C       0.633833     -0.021478      0.421664
  S      -0.484964      0.138287      1.823351
  C      -1.777401     -1.017037      1.309905
  C      -1.410092     -2.296905      0.895683
  C      -2.397429     -3.213425      0.543496
  C      -3.737250     -2.830245      0.618038
  Cl     -4.975153     -3.969130      0.167862
  C      -4.105130     -1.556642      1.046004
  C      -3.112141     -0.643473      1.400643
  C      -1.157166      1.665615      1.991468
  C      -1.214339      2.736979      0.913310
  O      -0.680078      3.706396      1.827580
  C      -0.445304      2.717519      2.840468
  C       0.194729      0.189052     -0.894941
  O      -1.123952      0.379889     -1.056754
  C      -1.637511      0.616422     -2.351289
  C       1.105850      0.186797     -1.959698
  H       2.554002      1.153984     -4.116960
  H       3.951792      0.131556     -4.572835
  H       2.343983     -0.618373     -4.319612
  H       3.988761     -0.357255     -0.218057
  H       4.311914      0.333139      1.972752
  H       4.131220     -1.447202      1.807833
  H       3.775596     -0.649068      3.372751
  H      -0.356668     -2.580417      0.837587
  H      -2.134433     -4.219492      0.215797
  H      -5.159557     -1.282766      1.094756
  H      -3.356075      0.365992      1.738378
  H      -2.208114      3.038775      0.534543
  H      -0.543469      2.592019      0.042689
  H       0.636068      2.568546      3.028398
  H      -0.925082      3.002411      3.794500
  H      -1.225620      1.546552     -2.772554
  H      -1.413937     -0.225008     -3.024234
  H      -2.722179      0.714554     -2.237956
  H       0.760478      0.346442     -2.976948
43
Coordinates from ORCA-job file E -1855.033871031289
  C       3.033107      0.174053     -3.979473
  O       3.412765     -0.024883     -2.633514
  C       2.464161     -0.013205     -1.681680
  C       2.922681     -0.211181     -0.370699
  C       2.007341     -0.209004      0.680189
  O       2.356432     -0.376988      1.967080
  C       3.723486     -0.543683      2.285356
  C       0.634293     -0.024877      0.421791
  S      -0.485117      0.136673      1.823038
  C      -1.777677     -1.019474      1.311752
  C      -1.411123     -2.299204      0.896973
  C      -2.399072     -3.215442      0.545682
  C      -3.738725     -2.832072      0.621542
  Cl     -4.976903     -3.970767      0.171674
  C      -4.105979     -1.558430      1.050126
  C      -3.112391     -0.645604      1.403805
  C      -1.158433      1.664064      1.987872
  C      -1.215987      2.732932      0.906892
  O      -0.680549      3.704554      1.817850
  C      -0.445440      2.718522      2.833373
  C       0.195187      0.185109     -0.894943
  O      -1.123998      0.372564     -1.056644
  C      -1.636299      0.625151     -2.348525
  C       1.106579      0.185252     -1.959312
  H       2.554847      1.156458     -4.115117
  H       3.953206      0.135149     -4.571593
  H       2.345713     -0.615786     -4.319421
  H       3.989631     -0.356606     -0.217220
  H       4.311171      0.333239      1.974067
  H       4.133054     -1.447272      1.808778
  H       3.775619     -0.649945      3.373610
  H      -0.357755     -2.582551      0.836927
  H      -2.136839     -4.221376      0.216937
  H      -5.160290     -1.284346      1.100139
  H      -3.355605      0.363978      1.741649
  H      -2.210093      3.034014      0.528432
  H      -0.546039      2.585450      0.036026
  H       0.636040      2.569534      3.020610
  H      -0.924020      3.006351      3.787096
  H      -1.220468      1.558056     -2.759794
  H      -1.417130     -0.209792     -3.030930
  H      -2.720519      0.726870     -2.234024
  H       0.761236      0.344313     -2.976677
43
Coordinates from ORCA-job file E -1855.033876127331
  C       3.034601      0.178220     -3.978373
  O       3.414259     -0.022346     -2.632644
  C       2.465245     -0.012401     -1.681091
  C       2.923743     -0.210433     -0.370176
  C       2.008459     -0.210241      0.680685
  O       2.357369     -0.378484      1.967596
  C       3.724542     -0.544315      2.285784
  C       0.635266     -0.027695      0.422018
  S      -0.484366      0.135024      1.822673
  C      -1.777570     -1.020968      1.312384
  C      -1.413049     -2.300465      0.895953
  C      -2.402367     -3.215827      0.545743
  C      -3.741513     -2.831806      0.624060
  Cl     -4.980960     -3.969802      0.175884
  C      -4.107008     -1.558033      1.054173
  C      -3.112141     -0.646391      1.406678
  C      -1.158647      1.662353      1.985385
  C      -1.215965      2.728740      0.901968
  O      -0.681093      3.702746      1.810487
  C      -0.446414      2.719193      2.828695
  C       0.196218      0.182214     -0.894735
  O      -1.123415      0.367145     -1.056105
  C      -1.635856      0.626987     -2.346438
  C       1.107428      0.184380     -1.959038
  H       2.555651      1.160458     -4.112710
  H       3.954846      0.140641     -4.570342
  H       2.347766     -0.611556     -4.319571
  H       3.990814     -0.354811     -0.216413
  H       4.311817      0.333083      1.975072
  H       4.134796     -1.447265      1.808589
  H       3.776706     -0.651317      3.373963
  H      -0.360023     -2.584599      0.833346
  H      -2.141152     -4.221624      0.215756
  H      -5.160941     -1.282879      1.106346
  H      -3.354522      0.363143      1.745314
  H      -2.210003      3.028997      0.522548
  H      -0.545588      2.579411      0.031731
  H       0.634898      2.570990      3.017307
  H      -0.925990      3.009783      3.781078
  H      -1.217699      1.560513     -2.753960
  H      -1.420078     -0.205288     -3.033189
  H      -2.719653      0.731381     -2.230365
  H       0.761689      0.342944     -2.976367
43
Coordinates from ORCA-job file E -1855.033878174836
  C       3.034502      0.179770     -3.977963
  O       3.414325     -0.021087     -2.632311
  C       2.465226     -0.011808     -1.680805
  C       2.923767     -0.210178     -0.369973
  C       2.008553     -0.211044      0.680938
  O       2.357533     -0.379243      1.967805
  C       3.724785     -0.544335      2.286028
  C       0.635194     -0.029604      0.422172
  S      -0.484020      0.133845      1.822725
  C      -1.777619     -1.021788      1.312935
  C      -1.413685     -2.301757      0.897642
  C      -2.403276     -3.216956      0.547562
  C      -3.742204     -2.832263      0.624751
  Cl     -4.982000     -3.969934      0.176628
  C      -4.107218     -1.557919      1.053729
  C      -3.112126     -0.646599      1.406170
  C      -1.158035      1.661463      1.984756
  C      -1.215972      2.726304      0.900083
  O      -0.681419      3.701742      1.807244
  C      -0.445513      2.719261      2.826364
  C       0.196211      0.180881     -0.894468
  O      -1.123559      0.365198     -1.055768
  C      -1.635628      0.629459     -2.345319
  C       1.107298      0.184264     -1.958843
  H       2.555473      1.162012     -4.111969
  H       3.954670      0.142207     -4.570049
  H       2.347599     -0.609924     -4.319229
  H       3.990898     -0.354054     -0.216138
  H       4.311589      0.333519      1.975703
  H       4.135574     -1.446762      1.808299
  H       3.776984     -0.651868      3.374147
  H      -0.360804     -2.586643      0.835906
  H      -2.142088     -4.223117      0.218682
  H      -5.160990     -1.281922      1.104821
  H      -3.354577      0.363286      1.743755
  H      -2.210093      3.025834      0.520200
  H      -0.545423      2.576406      0.030038
  H       0.635976      2.571801      3.014488
  H      -0.924670      3.011032      3.778610
  H      -1.216983      1.564114     -2.749749
  H      -1.420037     -0.200583     -3.034852
  H      -2.719392      0.733896     -2.228983
  H       0.761275      0.342894     -2.976063
