43
Coordinates from ORCA-job file
  C   3.03450204335741      0.17976985189716     -3.97796273024957
  O   3.41432454193950     -0.02108662283047     -2.63231054652083
  C   2.46522551630109     -0.01180756148494     -1.68080479866971
  C   2.92376695155898     -0.21017824853707     -0.36997285625879
  C   2.00855271847908     -0.21104441432372      0.68093813917097
  O   2.35753320360071     -0.37924282300761      1.96780530454113
  C   3.72478549545659     -0.54433477524743      2.28602842662889
  C   0.63519407379963     -0.02960400273823      0.42217164600512
  S   -0.48401953939758      0.13384462397779      1.82272493041062
  C   -1.77761935013895     -1.02178837887054      1.31293468790629
  C   -1.41368480604875     -2.30175666225828      0.89764235315872
  C   -2.40327623899417     -3.21695571052754      0.54756194411319
  C   -3.74220406533486     -2.83226287519900      0.62475065493994
  Cl  -4.98200039922776     -3.96993354236468      0.17662799864386
  C   -4.10721815278251     -1.55791863274313      1.05372904042063
  C   -3.11212645020482     -0.64659872776632      1.40617022811575
  C   -1.15803488876840      1.66146314902061      1.98475625438133
  C   -1.21597155613977      2.72630380781859      0.90008254159146
  O   -0.68141913209342      3.70174178398628      1.80724392274353
  C   -0.44551346388907      2.71926112608250      2.82636379426137
  C   0.19621086847720      0.18088093840024     -0.89446837805513
  O   -1.12355876304797      0.36519778614592     -1.05576832063780
  C   -1.63562777308925      0.62945891119760     -2.34531858643614
  C   1.10729817532124      0.18426412915767     -1.95884330418508
  H   2.55547328168623      1.16201249881651     -4.11196937094032
  H   3.95467005684838      0.14220655560356     -4.57004862590024
  H   2.34759893237052     -0.60992435196578     -4.31922915461677
  H   3.99089832026880     -0.35405436996941     -0.21613788317046
  H   4.31158918649542      0.33351905929062      1.97570271830688
  H   4.13557408900055     -1.44676198701102      1.80829858152573
  H   3.77698356713099     -0.65186821035051      3.37414698882836
  H   -0.36080430792016     -2.58664318610768      0.83590628224539
  H   -2.14208836296676     -4.22311677556409      0.21868172141154
  H   -5.16098957000982     -1.28192187179260      1.10482129403269
  H   -3.35457675165826      0.36328607379854      1.74375459907601
  H   -2.21009272184795      3.02583375971544      0.52020014954210
  H   -0.54542332950208      2.57640561745597      0.03003799374212
  H   0.63597583388991      2.57180117502466      3.01448841387657
  H   -0.92467004611747      3.01103172322707      3.77860950552178
  H   -1.21698335770750      1.56411355989729     -2.74974889588202
  H   -1.42003663661287     -0.20058273405000     -3.03485151297354
  H   -2.71939244835066      0.73389618929992     -2.22898254455403
  H   0.76127525586858      0.34289414489611     -2.97606260609157
