8
Coordinates from ORCA-job file
  C   0.00797364679635      0.06037777026170      1.10810231763502
  C   -0.98020127323693      0.02009077566154     -0.00510231646636
  O   -0.00754698283806     -0.06056371251686     -1.05055330645627
  C   0.97998315808614     -0.02263823104944     -0.01692331553945
  H   -1.61352914196896      0.92768756005221     -0.04782756419533
  H   -1.65469862438453     -0.85616033589958      0.04969977306681
  H   1.65028057344393      0.85758761086338     -0.06678151030009
  H   1.61773864410206     -0.92648143737295      0.02928592225567
