8
Coordinates from ORCA-job file E -191.532267372235
  C       0.008100      0.061500      1.121100
  C      -0.999400      0.021300      0.004800
  O      -0.007100     -0.054200     -0.987200
  C       0.999400     -0.021500     -0.007200
  H      -1.581600      0.965000     -0.074600
  H      -1.620900     -0.900000      0.028100
  H       1.620400      0.896400     -0.093900
  H       1.581100     -0.968600      0.008800
8
Coordinates from ORCA-job file E -191.535612710845
  C       0.008089      0.061873      1.119947
  C      -0.990917      0.020501     -0.003541
  O      -0.007288     -0.056184     -1.028680
  C       0.990717     -0.021979     -0.015500
  H      -1.586884      0.950912     -0.058842
  H      -1.625301     -0.884209      0.042051
  H       1.625152      0.882005     -0.078261
  H       1.586433     -0.953019      0.022726
8
Coordinates from ORCA-job file E -191.536696062007
  C       0.008078      0.061622      1.111356
  C      -0.983319      0.020123     -0.008248
  O      -0.007502     -0.058276     -1.054823
  C       0.982997     -0.022186     -0.020255
  H      -1.597118      0.939243     -0.046833
  H      -1.635279     -0.870595      0.052195
  H       1.634867      0.869850     -0.066273
  H       1.597275     -0.939881      0.032782
8
Coordinates from ORCA-job file E -191.536922650581
  C       0.008057      0.061088      1.106411
  C      -0.980519      0.020121     -0.008166
  O      -0.007582     -0.059423     -1.058852
  C       0.980204     -0.022212     -0.020173
  H      -1.604805      0.933197     -0.044137
  H      -1.643464     -0.863331      0.053967
  H       1.642205      0.863480     -0.063462
  H       1.605904     -0.933019      0.034311
8
Coordinates from ORCA-job file E -191.537007886858
  C       0.008026      0.060634      1.104883
  C      -0.979620      0.020175     -0.006557
  O      -0.007595     -0.060110     -1.055754
  C       0.979352     -0.022279     -0.018516
  H      -1.611329      0.928882     -0.045030
  H      -1.650865     -0.858116      0.052532
  H       1.648399      0.858896     -0.064190
  H       1.613630     -0.928183      0.032533
8
Coordinates from ORCA-job file E -191.537021979489
  C       0.008002      0.060507      1.106337
  C      -0.979918      0.020175     -0.005428
  O      -0.007569     -0.060266     -1.052170
  C       0.979685     -0.022396     -0.017326
  H      -1.613527      0.927669     -0.046799
  H      -1.653747     -0.856573      0.050683
  H       1.650430      0.857589     -0.065864
  H       1.616644     -0.926804      0.030468
8
Coordinates from ORCA-job file E -191.537023448628
  C       0.007985      0.060460      1.107688
  C      -0.980169      0.020134     -0.005077
  O      -0.007550     -0.060378     -1.050701
  C       0.979949     -0.022528     -0.016926
  H      -1.613755      0.927577     -0.047690
  H      -1.654502     -0.856275      0.049820
  H       1.650567      0.857477     -0.066697
  H       1.617475     -0.926566      0.029484
8
Coordinates from ORCA-job file E -191.537023559920
  C       0.007974      0.060378      1.108102
  C      -0.980201      0.020091     -0.005102
  O      -0.007547     -0.060564     -1.050553
  C       0.979983     -0.022638     -0.016923
  H      -1.613529      0.927688     -0.047828
  H      -1.654699     -0.856160      0.049700
  H       1.650281      0.857588     -0.066782
  H       1.617739     -0.926481      0.029286
