17
Coordinates from ORCA-job file
  C   -1.17900335080489     -0.66007269391915      0.76991202636153
  N   -2.10181745425096      0.12091976766279     -0.08614761197073
  C   -1.01983230527139      0.33337895097582     -1.07679158325633
  C   0.00430955074550     -0.03809677854772      0.01278205629423
  C   0.86400210276037      1.08762803143969      0.61913225813738
  N   2.02748098237111      0.55966262903755     -0.13263337647558
  C   1.33202802015941     -0.73484195726838     -0.32042880454398
  H   -1.23136072561055     -1.74927215048846      0.61341436239451
  H   -1.25745125030778     -0.44524042960558      1.84260596463458
  H   -2.91582504458216     -0.37999042329614     -0.42615947577664
  H   -1.01543840831992     -0.39753107567723     -1.90015493699336
  H   -0.96843913595954      1.34696505317409     -1.49033990059969
  H   0.95170281247565      0.98464524021057      1.71172066344700
  H   0.58761147012980      2.11894430326406      0.37201209596817
  H   2.90030030304430      0.51860119442450      0.38265561138759
  H   1.43346132904089     -1.16763281270318     -1.32307897502977
  H   1.58817110438016     -1.49806684868323      0.43149962602111
