17
Coordinates from ORCA-job file E -306.129003028743
  C      -1.079000     -0.542900      0.838300
  N      -2.122500     -0.202800     -0.142700
  C      -1.099900      0.411300     -1.005400
  C      -0.008100      0.073600     -0.023700
  C       0.931200      1.123200      0.510700
  N       2.107400      0.339800      0.098600
  C       1.215800     -0.701800     -0.437100
  H      -0.964600     -1.643000      0.969800
  H      -1.241600      0.004400      1.792100
  H      -2.450900     -1.088100     -0.597200
  H      -0.997700     -0.115900     -1.981300
  H      -1.274200      1.504500     -1.106100
  H       0.873100      1.249400      1.615800
  H       0.880100      2.081700     -0.050000
  H       2.574200     -0.034300      0.959100
  H       1.327700     -0.787300     -1.539700
  H       1.328900     -1.671800      0.098800
17
Coordinates from ORCA-job file E -306.140015158558
  C      -1.105078     -0.561117      0.850183
  N      -2.152730     -0.217215     -0.152963
  C      -1.119617      0.411547     -1.026857
  C      -0.007781      0.070489     -0.022704
  C       0.949192      1.139666      0.526779
  N       2.139339      0.340110      0.113605
  C       1.245690     -0.717944     -0.437898
  H      -0.989603     -1.640232      1.015047
  H      -1.269282     -0.043362      1.803220
  H      -2.505421     -1.062039     -0.587236
  H      -1.013116     -0.076199     -2.003993
  H      -1.293060      1.487026     -1.151255
  H       0.878793      1.297283      1.610414
  H       0.898900      2.097438     -0.004554
  H       2.623210     -0.008792      0.932607
  H       1.364862     -0.825940     -1.523024
  H       1.355600     -1.690718      0.058627
17
Coordinates from ORCA-job file E -306.141287239786
  C      -1.110946     -0.569575      0.843015
  N      -2.156874     -0.201449     -0.151672
  C      -1.121962      0.405398     -1.037268
  C      -0.008218      0.074510     -0.023983
  C       0.952089      1.141263      0.538685
  N       2.140446      0.352682      0.103291
  C       1.252712     -0.719300     -0.427551
  H      -0.987738     -1.648767      1.004636
  H      -1.271214     -0.084379      1.813358
  H      -2.573167     -1.023501     -0.574477
  H      -1.005828     -0.084838     -2.012524
  H      -1.290221      1.476487     -1.197923
  H       0.872842      1.294162      1.622807
  H       0.895146      2.115380      0.039492
  H       2.682540      0.027583      0.895911
  H       1.375469     -0.863744     -1.507727
  H       1.354825     -1.691911      0.071930
17
Coordinates from ORCA-job file E -306.141835903701
  C      -1.116574     -0.579325      0.835852
  N      -2.156818     -0.173437     -0.147302
  C      -1.115004      0.398003     -1.044644
  C      -0.007415      0.068275     -0.022378
  C       0.945909      1.138513      0.548871
  N       2.135380      0.371790      0.086078
  C       1.260428     -0.721168     -0.416979
  H      -0.999680     -1.663186      0.974326
  H      -1.268001     -0.119793      1.820624
  H      -2.635706     -0.966084     -0.558313
  H      -0.997754     -0.112723     -2.009981
  H      -1.266892      1.467333     -1.234074
  H       0.868880      1.270809      1.636485
  H       0.872292      2.123974      0.073519
  H       2.731283      0.074672      0.849602
  H       1.381696     -0.893972     -1.493772
  H       1.367877     -1.683680      0.102085
17
Coordinates from ORCA-job file E -306.142344565538
  C      -1.121434     -0.589077      0.828924
  N      -2.153501     -0.145215     -0.142917
  C      -1.105973      0.390982     -1.050877
  C      -0.006457      0.060448     -0.019945
  C       0.937901      1.135212      0.558154
  N       2.127124      0.390571      0.068161
  C       1.266968     -0.723384     -0.406445
  H      -1.015718     -1.677732      0.938521
  H      -1.263529     -0.153409      1.826286
  H      -2.691287     -0.905413     -0.542626
  H      -0.991660     -0.144000     -2.003729
  H      -1.238777      1.458458     -1.265748
  H       0.868397      1.243341      1.649267
  H       0.845155      2.129560      0.104226
  H       2.773226      0.123500      0.801557
  H       1.385301     -0.922082     -1.479485
  H       1.384163     -1.671761      0.136675
17
Coordinates from ORCA-job file E -306.142842472004
  C      -1.127015     -0.598871      0.821881
  N      -2.149567     -0.114516     -0.137769
  C      -1.095566      0.384000     -1.056241
  C      -0.005368      0.050785     -0.016578
  C       0.928864      1.131177      0.567174
  N       2.117776      0.411195      0.046584
  C       1.273693     -0.725783     -0.395473
  H      -1.036173     -1.691950      0.899377
  H      -1.259272     -0.187834      1.831090
  H      -2.738017     -0.841586     -0.527493
  H      -0.987688     -0.176958     -1.995142
  H      -1.206834      1.448798     -1.295730
  H       0.871677      1.212791      1.661637
  H       0.814276      2.133207      0.135529
  H       2.807370      0.174169      0.750104
  H       1.387612     -0.951801     -1.463621
  H       1.404131     -1.656822      0.174672
17
Coordinates from ORCA-job file E -306.143347199985
  C      -1.132099     -0.608449      0.814589
  N      -2.144018     -0.082651     -0.131677
  C      -1.084527      0.377523     -1.060778
  C      -0.004199      0.040427     -0.013034
  C       0.919143      1.126927      0.575290
  N       2.106813      0.432057      0.023391
  C       1.279955     -0.728117     -0.384264
  H      -1.059323     -1.705032      0.855595
  H      -1.254143     -0.222917      1.835029
  H      -2.776522     -0.776768     -0.512892
  H      -0.987190     -0.211302     -1.983816
  H      -1.172790      1.438855     -1.323932
  H       0.878713      1.179870      1.672466
  H       0.781292      2.135324      0.166019
  H       2.833536      0.224369      0.698624
  H       1.388947     -0.982173     -1.446482
  H       1.426311     -1.637943      0.215872
17
Coordinates from ORCA-job file E -306.143845861456
  C      -1.138386     -0.618297      0.806617
  N      -2.139320     -0.048521     -0.124501
  C      -1.074136      0.370215     -1.065263
  C      -0.002907      0.029338     -0.009603
  C       0.909914      1.121893      0.583586
  N       2.096382      0.454001     -0.001104
  C       1.287828     -0.730040     -0.372635
  H      -1.083433     -1.717001      0.812752
  H      -1.250470     -0.261147      1.838314
  H      -2.812180     -0.708785     -0.496703
  H      -0.988228     -0.244786     -1.972565
  H      -1.139309      1.426331     -1.354159
  H       0.886052      1.147799      1.682495
  H       0.748989      2.136421      0.199081
  H       2.855877      0.275387      0.645793
  H       1.393520     -1.014190     -1.427385
  H       1.449710     -1.618618      0.255279
17
Coordinates from ORCA-job file E -306.144325080710
  C      -1.143860     -0.625784      0.798525
  N      -2.135604     -0.009540     -0.113860
  C      -1.064135      0.365324     -1.067850
  C      -0.001452      0.018033     -0.006435
  C       0.900406      1.117166      0.589072
  N       2.086175      0.478088     -0.031685
  C       1.294919     -0.731067     -0.361986
  H      -1.112755     -1.724948      0.762096
  H      -1.244156     -0.299334      1.840787
  H      -2.828998     -0.649802     -0.484379
  H      -0.998428     -0.279637     -1.955928
  H      -1.104687      1.414552     -1.382380
  H       0.902310      1.111365      1.688551
  H       0.714512      2.136499      0.231382
  H       2.861412      0.318592      0.601832
  H       1.396368     -1.048518     -1.406917
  H       1.477874     -1.590990      0.299175
17
Coordinates from ORCA-job file E -306.144773774035
  C      -1.153239     -0.635501      0.790180
  N      -2.130630      0.023901     -0.107381
  C      -1.054724      0.356528     -1.071884
  C      -0.000238      0.006213     -0.002143
  C       0.892965      1.110739      0.598351
  N       2.074848      0.499911     -0.056827
  C       1.304825     -0.732013     -0.350186
  H      -1.138138     -1.734257      0.726000
  H      -1.246873     -0.340448      1.842711
  H      -2.861921     -0.579025     -0.467355
  H      -0.998904     -0.309289     -1.945662
  H      -1.073554      1.397567     -1.415195
  H       0.910525      1.082050      1.697758
  H       0.685484      2.136068      0.270258
  H       2.881550      0.371791      0.543674
  H       1.406044     -1.081950     -1.385049
  H       1.501879     -1.572285      0.332749
17
Coordinates from ORCA-job file E -306.145115833167
  C      -1.161033     -0.644052      0.782460
  N      -2.121640      0.057604     -0.099916
  C      -1.043302      0.349423     -1.074066
  C       0.001214     -0.007403      0.002580
  C       0.883345      1.103852      0.605538
  N       2.059345      0.520868     -0.083649
  C       1.313091     -0.733225     -0.339067
  H      -1.168331     -1.740539      0.682931
  H      -1.247894     -0.378033      1.843179
  H      -2.882992     -0.511655     -0.453314
  H      -1.004658     -0.340959     -1.929892
  H      -1.038237      1.382002     -1.442167
  H       0.925078      1.047218      1.703500
  H       0.652034      2.132539      0.305432
  H       2.890938      0.422430      0.488392
  H       1.412995     -1.114022     -1.362983
  H       1.529947     -1.546050      0.371041
17
Coordinates from ORCA-job file E -306.145339296356
  C      -1.170942     -0.652893      0.775422
  N      -2.112202      0.093615     -0.091568
  C      -1.031242      0.340183     -1.075933
  C       0.002779     -0.023625      0.007899
  C       0.873219      1.095410      0.612964
  N       2.043847      0.542598     -0.109508
  C       1.323804     -0.733347     -0.329302
  H      -1.202063     -1.746152      0.645012
  H      -1.252319     -0.416527      1.843505
  H      -2.903315     -0.438739     -0.437194
  H      -1.010271     -0.373368     -1.913811
  H      -1.001236      1.362005     -1.471400
  H       0.938084      1.013953      1.708629
  H       0.618162      2.126363      0.341631
  H       2.898035      0.474410      0.433184
  H       1.424422     -1.142523     -1.342123
  H       1.561139     -1.521362      0.402592
17
Coordinates from ORCA-job file E -306.145398593358
  C      -1.181000     -0.660120      0.768879
  N      -2.101705      0.120797     -0.088707
  C      -1.018021      0.334097     -1.076595
  C       0.004188     -0.038390      0.014696
  C       0.864385      1.086313      0.621505
  N       2.023187      0.562141     -0.140194
  C       1.331340     -0.735855     -0.317493
  H      -1.233307     -1.749055      0.610834
  H      -1.261338     -0.445755      1.841598
  H      -2.916137     -0.378739     -0.430121
  H      -1.012617     -0.396936     -1.899723
  H      -0.965732      1.348057     -1.489303
  H       0.958137      0.976722      1.713046
  H       0.585500      2.118692      0.382047
  H       2.901376      0.527008      0.366204
  H       1.431606     -1.176299     -1.316823
  H       1.590039     -1.492679      0.440152
17
Coordinates from ORCA-job file E -306.145384864843
  C      -1.176143     -0.663563      0.768286
  N      -2.097002      0.132932     -0.076596
  C      -1.021072      0.328859     -1.078126
  C       0.005213     -0.040974      0.009293
  C       0.860331      1.088728      0.615949
  N       2.031064      0.559874     -0.122634
  C       1.336253     -0.732516     -0.322326
  H      -1.234965     -1.750915      0.600242
  H      -1.248530     -0.460467      1.843488
  H      -2.920742     -0.356439     -0.409507
  H      -1.025735     -0.410849     -1.893929
  H      -0.965332      1.337208     -1.503300
  H       0.941443      0.991770      1.709389
  H       0.584139      2.118159      0.360263
  H       2.898517      0.516334      0.401946
  H       1.441510     -1.158021     -1.327886
  H       1.590950     -1.500120      0.425447
17
Coordinates from ORCA-job file E -306.145403349769
  C      -1.178726     -0.659442      0.770706
  N      -2.103024      0.118737     -0.086542
  C      -1.020639      0.334032     -1.076337
  C       0.004208     -0.037556      0.012651
  C       0.864674      1.088170      0.618210
  N       2.029258      0.558330     -0.130685
  C       1.331695     -0.734679     -0.321526
  H      -1.229725     -1.749069      0.616766
  H      -1.257425     -0.442599      1.842997
  H      -2.914673     -0.385372     -0.427445
  H      -1.014982     -0.395135     -1.901215
  H      -0.970706      1.348449     -1.488058
  H       0.950443      0.987690      1.711168
  H       0.589775      2.119270      0.368490
  H       2.900111      0.514575      0.387755
  H       1.432959     -1.165061     -1.325254
  H       1.586677     -1.500338      0.428317
17
Coordinates from ORCA-job file E -306.145404138679
  C      -1.179003     -0.660073      0.769912
  N      -2.101817      0.120920     -0.086148
  C      -1.019832      0.333379     -1.076792
  C       0.004310     -0.038097      0.012782
  C       0.864002      1.087628      0.619132
  N       2.027481      0.559663     -0.132633
  C       1.332028     -0.734842     -0.320429
  H      -1.231361     -1.749272      0.613414
  H      -1.257451     -0.445240      1.842606
  H      -2.915825     -0.379990     -0.426159
  H      -1.015438     -0.397531     -1.900155
  H      -0.968439      1.346965     -1.490340
  H       0.951703      0.984645      1.711721
  H       0.587611      2.118944      0.372012
  H       2.900300      0.518601      0.382656
  H       1.433461     -1.167633     -1.323079
  H       1.588171     -1.498067      0.431500
