25
Coordinates from ORCA-job file E -989.894473429027
  C       3.477500      1.018300      1.574100
  C       2.254000      0.406600      0.958700
  C       2.100100      0.383200     -0.435400
  C       0.977700     -0.219600     -1.010600
  C      -0.004500     -0.807700     -0.200200
  S      -1.419100     -1.583800     -0.930300
  O      -1.842600     -2.735000     -0.061300
  O      -1.029600     -2.136500     -2.272800
  N      -2.785000     -0.505800     -1.140700
  C      -3.069600      0.249700      0.082700
  C      -2.641500      1.566900     -0.527100
  C      -2.385900      0.752900     -1.777000
  C       0.168000     -0.815600      1.191700
  C       1.290200     -0.213100      1.767900
  H       3.249700      1.416400      2.585900
  H       3.850900      1.858700      0.950800
  H       4.272600      0.248500      1.658100
  H       2.849800      0.829400     -1.077200
  H       0.878800     -0.230200     -2.088400
  H      -4.158400      0.242800      0.304000
  H      -2.455600     -0.029300      0.963500
  H      -1.327400      0.801100     -2.105400
  H      -3.095400      1.025200     -2.587600
  H      -0.562800     -1.291300      1.832900
  H       1.408100     -0.231800      2.844300
25
Coordinates from ORCA-job file E -989.913795351322
  C       3.439948      1.040616      1.566494
  C       2.221863      0.405696      0.946856
  C       2.066108      0.373731     -0.448582
  C       0.958070     -0.245111     -1.027208
  C      -0.011011     -0.840186     -0.211592
  S      -1.408951     -1.651895     -0.945203
  O      -1.859837     -2.725659     -0.022499
  O      -1.021346     -2.108799     -2.304927
  N      -2.720244     -0.525785     -1.122146
  C      -3.017129      0.261739      0.106386
  C      -2.602789      1.583209     -0.508797
  C      -2.333405      0.765199     -1.755641
  C       0.146763     -0.842260      1.178940
  C       1.257145     -0.222001      1.751727
  H       3.213277      1.435813      2.569854
  H       3.809325      1.874494      0.948000
  H       4.246632      0.292347      1.660494
  H       2.818082      0.830171     -1.094094
  H       0.858841     -0.275040     -2.113134
  H      -4.100283      0.258649      0.338585
  H      -2.427279      0.001817      1.003520
  H      -1.287154      0.841386     -2.101674
  H      -3.033116      1.044418     -2.567777
  H      -0.586254     -1.338567      1.816407
  H       1.372745     -0.233984      2.836609
25
Coordinates from ORCA-job file E -989.922345114336
  C       3.416095      1.056637      1.561599
  C       2.205987      0.402782      0.940573
  C       2.042865      0.370168     -0.454354
  C       0.947535     -0.265013     -1.036977
  C      -0.009378     -0.868424     -0.215880
  S      -1.408056     -1.698727     -0.950499
  O      -1.895906     -2.682589      0.015042
  O      -1.034881     -2.073300     -2.313879
  N      -2.656398     -0.538438     -1.104363
  C      -2.985263      0.272916      0.115286
  C      -2.604778      1.589083     -0.515510
  C      -2.296590      0.771436     -1.744969
  C       0.143161     -0.873607      1.173079
  C       1.245566     -0.237775      1.740846
  H       3.191779      1.442646      2.566445
  H       3.779429      1.893034      0.947253
  H       4.239068      0.328250      1.657751
  H       2.790519      0.841392     -1.098895
  H       0.842793     -0.308107     -2.123438
  H      -4.066568      0.254368      0.351777
  H      -2.422455      0.041069      1.035599
  H      -1.259750      0.883613     -2.105152
  H      -2.984845      1.037947     -2.570075
  H      -0.584768     -1.391572      1.801367
  H       1.364841     -0.247788      2.827975
25
Coordinates from ORCA-job file E -989.924132711969
  C       3.418005      1.059344      1.563071
  C       2.215697      0.392713      0.943608
  C       2.044551      0.367477     -0.450257
  C       0.954399     -0.276316     -1.033816
  C       0.005020     -0.889881     -0.211039
  S      -1.410707     -1.705834     -0.945932
  O      -1.920902     -2.658954      0.031621
  O      -1.046940     -2.053382     -2.313192
  N      -2.627018     -0.528409     -1.092501
  C      -2.993443      0.291601      0.108807
  C      -2.690546      1.605085     -0.556129
  C      -2.305915      0.780391     -1.752539
  C       0.161628     -0.901105      1.177658
  C       1.260012     -0.255250      1.743218
  H       3.194814      1.436699      2.571913
  H       3.772652      1.901466      0.950598
  H       4.253370      0.343866      1.655756
  H       2.785832      0.851244     -1.093191
  H       0.847392     -0.325913     -2.119383
  H      -4.070468      0.221213      0.359062
  H      -2.427971      0.107937      1.039435
  H      -1.268964      0.933538     -2.099414
  H      -2.974671      1.000997     -2.607909
  H      -0.559061     -1.434213      1.801003
  H       1.383236     -0.264312      2.830151
25
Coordinates from ORCA-job file E -989.925351375759
  C       3.424954      1.055078      1.568005
  C       2.227974      0.383996      0.947107
  C       2.061176      0.354845     -0.447202
  C       0.973387     -0.291228     -1.033443
  C       0.023110     -0.905653     -0.211819
  S      -1.408583     -1.700350     -0.949569
  O      -1.929210     -2.649434      0.028738
  O      -1.054771     -2.028427     -2.325623
  N      -2.601371     -0.510601     -1.076242
  C      -3.005418      0.303109      0.108651
  C      -2.808753      1.612183     -0.595421
  C      -2.335548      0.791386     -1.757701
  C       0.171636     -0.908221      1.178146
  C       1.268128     -0.259285      1.745303
  H       3.199330      1.433349      2.576521
  H       3.782334      1.895386      0.953684
  H       4.264042      0.343778      1.666926
  H       2.804957      0.838309     -1.086975
  H       0.870288     -0.350898     -2.118486
  H      -4.067995      0.159518      0.392087
  H      -2.416786      0.180627      1.037146
  H      -1.298626      0.998002     -2.081543
  H      -2.977872      0.954724     -2.646906
  H      -0.553701     -1.439943      1.796720
  H       1.387316     -0.260251      2.832495
25
Coordinates from ORCA-job file E -989.926300213927
  C       3.432021      1.052069      1.566137
  C       2.236581      0.377526      0.948276
  C       2.064564      0.353275     -0.445699
  C       0.976701     -0.294932     -1.029789
  C       0.034655     -0.919504     -0.206388
  S      -1.410094     -1.694548     -0.941049
  O      -1.942402     -2.639955      0.039974
  O      -1.063600     -2.030525     -2.321088
  N      -2.575393     -0.487707     -1.063228
  C      -3.032792      0.314731      0.098516
  C      -2.905851      1.614760     -0.637062
  C      -2.343656      0.800012     -1.763105
  C       0.187292     -0.924651      1.183374
  C       1.283338     -0.272992      1.748736
  H       3.210467      1.423023      2.578521
  H       3.782662      1.897145      0.954054
  H       4.276857      0.346082      1.657585
  H       2.803111      0.844383     -1.085279
  H       0.864576     -0.348748     -2.114186
  H      -4.080479      0.109079      0.400178
  H      -2.434070      0.251763      1.028317
  H      -1.300427      1.051553     -2.037842
  H      -2.936322      0.915238     -2.693901
  H      -0.535484     -1.461407      1.800456
  H       1.407746     -0.275672      2.835093
25
Coordinates from ORCA-job file E -989.927104894542
  C       3.436107      1.048220      1.565088
  C       2.241476      0.373685      0.945579
  C       2.080161      0.336758     -0.449600
  C       0.993150     -0.312054     -1.034452
  C       0.044192     -0.926314     -0.211036
  S      -1.405119     -1.686481     -0.946205
  O      -1.939591     -2.643638      0.025649
  O      -1.068129     -2.022309     -2.331182
  N      -2.551312     -0.467170     -1.048472
  C      -3.054235      0.308309      0.101855
  C      -2.991682      1.607335     -0.649938
  C      -2.360070      0.812778     -1.757434
  C       0.185694     -0.917242      1.179642
  C       1.280716     -0.265440      1.746556
  H       3.210367      1.427910      2.573346
  H       3.793734      1.887187      0.948557
  H       4.277633      0.339634      1.666776
  H       2.825785      0.818239     -1.088068
  H       0.885351     -0.374143     -2.118876
  H      -4.079160      0.040411      0.429344
  H      -2.434315      0.301515      1.021989
  H      -1.316092      1.115903     -1.977716
  H      -2.904802      0.894660     -2.719901
  H      -0.547766     -1.440622      1.795585
  H       1.397904     -0.257132      2.833514
25
Coordinates from ORCA-job file E -989.927700279122
  C       3.440627      1.042863      1.563658
  C       2.243311      0.369951      0.945626
  C       2.077340      0.338905     -0.449244
  C       0.989095     -0.309412     -1.032385
  C       0.046027     -0.930763     -0.207618
  S      -1.403686     -1.685222     -0.938789
  O      -1.943953     -2.643213      0.028956
  O      -1.073683     -2.033753     -2.322261
  N      -2.531897     -0.452574     -1.037840
  C      -3.072583      0.313573      0.094487
  C      -3.062750      1.601574     -0.687606
  C      -2.366768      0.813595     -1.767199
  C       0.192066     -0.926584      1.182627
  C       1.287511     -0.274719      1.748225
  H       3.218769      1.416476      2.574883
  H       3.792736      1.886741      0.950926
  H       4.283107      0.334489      1.656083
  H       2.819380      0.824933     -1.088539
  H       0.873306     -0.361761     -2.116635
  H      -4.071849     -0.002033      0.452633
  H      -2.429350      0.378927      0.997897
  H      -1.323390      1.162649     -1.921207
  H      -2.854936      0.861124     -2.760233
  H      -0.538024     -1.453862      1.799446
  H       1.409595     -0.271904      2.834711
25
Coordinates from ORCA-job file E -989.928102719371
  C       3.446429      1.033142      1.568270
  C       2.245943      0.366216      0.947900
  C       2.080891      0.337885     -0.447078
  C       0.992108     -0.308015     -1.032128
  C       0.047354     -0.928986     -0.208747
  S      -1.398599     -1.684089     -0.939937
  O      -1.938473     -2.646019      0.021259
  O      -1.074599     -2.031954     -2.322989
  N      -2.521364     -0.445855     -1.029474
  C      -3.078206      0.316684      0.094240
  C      -3.141314      1.585239     -0.723489
  C      -2.391479      0.809172     -1.780591
  C       0.191446     -0.925546      1.181661
  C       1.287709     -0.276607      1.748913
  H       3.225259      1.404575      2.580333
  H       3.800038      1.878597      0.958773
  H       4.285566      0.320713      1.657240
  H       2.824929      0.822092     -1.085590
  H       0.877825     -0.358098     -2.116697
  H      -4.040061     -0.044030      0.503821
  H      -2.397726      0.466374      0.961540
  H      -1.358724      1.211321     -1.876026
  H      -2.832580      0.822972     -2.794677
  H      -0.540688     -1.450166      1.798415
  H       1.408317     -0.275618      2.835659
25
Coordinates from ORCA-job file E -989.928276051184
  C       3.446626      1.030897      1.566811
  C       2.245397      0.363548      0.947459
  C       2.075156      0.340683     -0.446866
  C       0.986122     -0.305565     -1.031181
  C       0.045613     -0.932672     -0.207561
  S      -1.399993     -1.689396     -0.936285
  O      -1.943261     -2.645106      0.026630
  O      -1.079233     -2.039745     -2.317730
  N      -2.518662     -0.444730     -1.028654
  C      -3.084608      0.320020      0.089194
  C      -3.182441      1.573669     -0.750142
  C      -2.391007      0.807078     -1.785517
  C       0.194069     -0.933543      1.182505
  C       1.290686     -0.284015      1.748655
  H       3.227604      1.396737      2.581313
  H       3.794533      1.880955      0.960521
  H       4.287460      0.319809      1.648270
  H       2.814889      0.830155     -1.086505
  H       0.868807     -0.349136     -2.115729
  H      -4.023089     -0.062469      0.529151
  H      -2.382936      0.523644      0.929649
  H      -1.365330      1.238901     -1.822270
  H      -2.785144      0.807301     -2.817584
  H      -0.534729     -1.460492      1.801227
  H       1.413469     -0.286527      2.835241
25
Coordinates from ORCA-job file E -989.928401194229
  C       3.438860      1.035013      1.565337
  C       2.240003      0.363836      0.945696
  C       2.069834      0.339901     -0.448534
  C       0.982420     -0.308761     -1.033175
  C       0.042340     -0.937219     -0.210100
  S      -1.403263     -1.695775     -0.939109
  O      -1.947099     -2.648342      0.025377
  O      -1.082864     -2.041871     -2.320892
  N      -2.525233     -0.449611     -1.032041
  C      -3.076030      0.321134      0.091807
  C      -3.173857      1.573938     -0.747480
  C      -2.384046      0.806613     -1.782471
  C       0.190514     -0.937006      1.180004
  C       1.285860     -0.285205      1.746248
  H       3.218009      1.400151      2.579690
  H       3.783827      1.886302      0.959082
  H       4.281679      0.326344      1.646790
  H       2.808002      0.831063     -1.088731
  H       0.867161     -0.352231     -2.117933
  H      -4.007464     -0.059347      0.546840
  H      -2.357117      0.532285      0.916198
  H      -1.356470      1.236326     -1.796058
  H      -2.764520      0.812585     -2.819067
  H      -0.537468     -1.463451      1.800060
  H       1.406924     -0.286672      2.833061
25
Coordinates from ORCA-job file E -989.928552039374
  C       3.418315      1.044802      1.564137
  C       2.224425      0.367115      0.942962
  C       2.056212      0.340857     -0.451465
  C       0.972064     -0.311979     -1.037644
  C       0.032357     -0.943120     -0.216281
  S      -1.412197     -1.706469     -0.947527
  O      -1.953654     -2.657754      0.019356
  O      -1.089979     -2.042645     -2.331257
  N      -2.544567     -0.462495     -1.039947
  C      -3.042792      0.325239      0.101347
  C      -3.127930      1.580519     -0.730857
  C      -2.369167      0.801567     -1.776286
  C       0.178645     -0.941167      1.174018
  C       1.270861     -0.285018      1.741626
  H       3.193756      1.408399      2.578235
  H       3.759350      1.897865      0.958128
  H       4.264967      0.340817      1.646775
  H       2.792890      0.834174     -1.091735
  H       0.861538     -0.356725     -2.122818
  H      -3.965218     -0.036520      0.587515
  H      -2.287226      0.525353      0.895667
  H      -1.330819      1.206088     -1.772738
  H      -2.743390      0.826236     -2.814287
  H      -0.547286     -1.469431      1.794880
  H       1.388847     -0.285709      2.828795
25
Coordinates from ORCA-job file E -989.928589999385
  C       3.414510      1.047435      1.560822
  C       2.220751      0.369404      0.940170
  C       2.054513      0.339341     -0.454487
  C       0.970305     -0.313914     -1.040162
  C       0.028820     -0.941523     -0.218095
  S      -1.414983     -1.706864     -0.949524
  O      -1.954374     -2.659884      0.017960
  O      -1.090806     -2.043854     -2.333457
  N      -2.550667     -0.465483     -1.043826
  C      -3.042567      0.319750      0.102336
  C      -3.115054      1.581019     -0.720549
  C      -2.359287      0.803571     -1.768087
  C       0.173701     -0.936588      1.172370
  C       1.265827     -0.279952      1.739592
  H       3.189740      1.413159      2.574109
  H       3.757166      1.898699      0.953186
  H       4.260876      0.343301      1.645902
  H       2.792971      0.829575     -1.095027
  H       0.861159     -0.362718     -2.125305
  H      -3.966724     -0.037775      0.588483
  H      -2.285454      0.507085      0.898436
  H      -1.316770      1.197223     -1.754933
  H      -2.723548      0.840894     -2.809297
  H      -0.553095     -1.463766      1.793160
  H       1.382989     -0.278137      2.826821
25
Coordinates from ORCA-job file E -989.928614489955
  C       3.412039      1.047882      1.560021
  C       2.217840      0.370767      0.939455
  C       2.052656      0.340140     -0.455400
  C       0.967984     -0.312413     -1.041005
  C       0.025786     -0.938499     -0.218501
  S      -1.416707     -1.705418     -0.950368
  O      -1.953373     -2.662401      0.016103
  O      -1.090148     -2.044905     -2.334068
  N      -2.555075     -0.467267     -1.045502
  C      -3.039614      0.318413      0.102854
  C      -3.107045      1.581642     -0.716932
  C      -2.357315      0.802169     -1.766694
  C       0.170331     -0.933840      1.172049
  C       1.262719     -0.277914      1.739352
  H       3.188483      1.412859      2.573841
  H       3.755553      1.899064      0.952752
  H       4.258630      0.343855      1.644673
  H       2.792407      0.829241     -1.095262
  H       0.857527     -0.362539     -2.125963
  H      -3.960778     -0.035783      0.597234
  H      -2.279395      0.499173      0.897745
  H      -1.311645      1.187930     -1.753322
  H      -2.714576      0.845915     -2.810172
  H      -0.557039     -1.462131      1.791268
  H       1.380755     -0.275943      2.826443
25
Coordinates from ORCA-job file E -989.928617405558
  C       3.412685      1.047462      1.559448
  C       2.218160      0.370656      0.939112
  C       2.053025      0.339902     -0.455738
  C       0.968156     -0.312416     -1.041139
  C       0.025909     -0.938079     -0.218305
  S      -1.416354     -1.705184     -0.949929
  O      -1.953068     -2.662228      0.016266
  O      -1.089668     -2.045942     -2.333144
  N      -2.554404     -0.467052     -1.045621
  C      -3.042230      0.317529      0.101798
  C      -3.110128      1.581104     -0.717511
  C      -2.357239      0.802790     -1.765943
  C       0.170362     -0.933162      1.172270
  C       1.262945     -0.277473      1.739346
  H       3.189740      1.412085      2.573527
  H       3.756132      1.898833      0.952401
  H       4.259343      0.343433      1.643507
  H       2.793121      0.828693     -1.095440
  H       0.856989     -0.363058     -2.126003
  H      -3.962221     -0.038535      0.597015
  H      -2.283475      0.499670      0.897961
  H      -1.312013      1.190003     -1.749654
  H      -2.709410      0.847010     -2.811103
  H      -0.557680     -1.461016      1.791081
  H       1.381325     -0.275026      2.826398
25
Coordinates from ORCA-job file E -989.928617707317
  C       3.412188      1.047335      1.559953
  C       2.217762      0.370404      0.939501
  C       2.052247      0.340631     -0.455316
  C       0.967553     -0.311772     -1.040853
  C       0.025808     -0.938377     -0.218110
  S      -1.416246     -1.705644     -0.949685
  O      -1.953237     -2.662380      0.016306
  O      -1.089735     -2.046645     -2.332615
  N      -2.554295     -0.467236     -1.045373
  C      -3.040492      0.318981      0.101674
  C      -3.109541      1.581695     -0.718781
  C      -2.358538      0.801943     -1.767420
  C       0.170568     -0.934279      1.172450
  C       1.263043     -0.278560      1.739624
  H       3.189664      1.410453      2.574663
  H       3.754505      1.899853      0.953872
  H       4.259453      0.343858      1.642426
  H       2.791975      0.830363     -1.094730
  H       0.855725     -0.361781     -2.125680
  H      -3.958786     -0.036876      0.600157
  H      -2.280221      0.502767      0.896143
  H      -1.313321      1.189529     -1.752429
  H      -2.710547      0.845051     -2.812670
  H      -0.557403     -1.462695      1.790864
  H       1.381871     -0.276619      2.826630
25
Coordinates from ORCA-job file E -989.928617921867
  C       3.412368      1.047382      1.559670
  C       2.217899      0.370424      0.939310
  C       2.052473      0.340334     -0.455511
  C       0.967795     -0.312144     -1.040969
  C       0.025919     -0.938472     -0.218147
  S      -1.416143     -1.705772     -0.949601
  O      -1.953425     -2.662097      0.016543
  O      -1.089742     -2.046950     -2.332449
  N      -2.554057     -0.467129     -1.045535
  C      -3.041426      0.318513      0.101425
  C      -3.110116      1.581523     -0.718497
  C      -2.358015      0.802462     -1.766795
  C       0.170570     -0.934018      1.172426
  C       1.263052     -0.278235      1.739519
  H       3.189960      1.410290      2.574480
  H       3.754397      1.900102      0.953704
  H       4.259706      0.343958      1.641780
  H       2.792304      0.829856     -1.094966
  H       0.856114     -0.362546     -2.125793
  H      -3.960025     -0.037860      0.599000
  H      -2.281905      0.502225      0.896645
  H      -1.312959      1.190474     -1.750690
  H      -2.709034      0.845872     -2.812374
  H      -0.557531     -1.462187      1.790896
  H       1.381820     -0.276006      2.826531
