25
Coordinates from ORCA-job file
  C   3.41236802589582      1.04738168736245      1.55967030124596
  C   2.21789943055234      0.37042416850222      0.93931018043294
  C   2.05247305373117      0.34033384173448     -0.45551076763784
  C   0.96779540636926     -0.31214424041657     -1.04096887728242
  C   0.02591899691876     -0.93847236436524     -0.21814713983037
  S   -1.41614330581248     -1.70577237658062     -0.94960056394866
  O   -1.95342455430266     -2.66209718208554      0.01654305456913
  O   -1.08974237701895     -2.04694959832020     -2.33244933557769
  N   -2.55405703403992     -0.46712876330028     -1.04553536093208
  C   -3.04142553359763      0.31851281267551      0.10142458694291
  C   -3.11011637958320      1.58152313692753     -0.71849653366249
  C   -2.35801462243276      0.80246224369135     -1.76679525169100
  C   0.17056965118468     -0.93401751757755      1.17242640353714
  C   1.26305247041406     -0.27823468286407      1.73951876242625
  H   3.18996039093757      1.41029023379584      2.57447971301256
  H   3.75439666336469      1.90010218957734      0.95370362661352
  H   4.25970607491541      0.34395806845885      1.64177969446807
  H   2.79230409478172      0.82985627447081     -1.09496631048490
  H   0.85611401645536     -0.36254605759587     -2.12579325138749
  H   -3.96002535901409     -0.03785976558178      0.59899993882394
  H   -2.28190536796094      0.50222544380377      0.89664452503758
  H   -1.31295914581757      1.19047361421111     -1.75069042990681
  H   -2.70903390442547      0.84587172277311     -2.81237360331991
  H   -0.55753099125080     -1.46218677235510      1.79089583743633
  H   1.38182029973561     -0.27600611694153      2.82653080111532
