8
Coordinates from ORCA-job file E -191.704721020333
  C       0.008100      0.061500      1.121100
  C      -0.999400      0.021300      0.004800
  O      -0.007100     -0.054200     -0.987200
  C       0.999400     -0.021500     -0.007200
  H      -1.581600      0.965000     -0.074600
  H      -1.620900     -0.900000      0.028100
  H       1.620400      0.896400     -0.093900
  H       1.581100     -0.968600      0.008800
8
Coordinates from ORCA-job file E -191.709506193862
  C       0.008136      0.061877      1.127695
  C      -0.994475      0.020882     -0.001128
  O      -0.007393     -0.057080     -1.034926
  C       0.994389     -0.021712     -0.013073
  H      -1.587835      0.945578     -0.060127
  H      -1.626466     -0.878769      0.040185
  H       1.625974      0.876754     -0.079528
  H       1.587671     -0.947630      0.020802
8
Coordinates from ORCA-job file E -191.710710290123
  C       0.008132      0.061538      1.123364
  C      -0.991215      0.020728     -0.002606
  O      -0.007660     -0.059060     -1.063415
  C       0.991097     -0.021724     -0.014561
  H      -1.599639      0.933349     -0.050328
  H      -1.638090     -0.864801      0.048378
  H       1.637389      0.864051     -0.069832
  H       1.599986     -0.934183      0.028900
8
Coordinates from ORCA-job file E -191.710972417752
  C       0.008114      0.061147      1.117731
  C      -0.989649      0.020752     -0.000969
  O      -0.007773     -0.059732     -1.070736
  C       0.989549     -0.021628     -0.012950
  H      -1.608268      0.927681     -0.047483
  H      -1.646822     -0.858291      0.050451
  H       1.645827      0.858011     -0.067052
  H       1.609023     -0.928039      0.030907
8
Coordinates from ORCA-job file E -191.711058909758
  C       0.008094      0.060854      1.113935
  C      -0.988696      0.020809      0.001498
  O      -0.007809     -0.059896     -1.069908
  C       0.988625     -0.021523     -0.010503
  H      -1.614183      0.924073     -0.047701
  H      -1.652979     -0.854281      0.049744
  H       1.651604      0.854143     -0.067316
  H       1.615344     -0.924279      0.030151
8
Coordinates from ORCA-job file E -191.711071831226
  C       0.008089      0.060782      1.113993
  C      -0.988450      0.020820      0.002654
  O      -0.007794     -0.059860     -1.066939
  C       0.988392     -0.021495     -0.009350
  H      -1.615593      0.923171     -0.048960
  H      -1.654652     -0.853317      0.048353
  H       1.652969      0.853178     -0.068592
  H       1.617038     -0.923381      0.028741
8
Coordinates from ORCA-job file E -191.711074336818
  C       0.008089      0.060749      1.114974
  C      -0.988348      0.020794      0.003009
  O      -0.007779     -0.059904     -1.065157
  C       0.988294     -0.021512     -0.008992
  H      -1.615819      0.922911     -0.049794
  H      -1.655181     -0.852981      0.047456
  H       1.653180      0.852908     -0.069433
  H       1.617565     -0.923065      0.027836
8
Coordinates from ORCA-job file E -191.711074904959
  C       0.008090      0.060696      1.115605
  C      -0.988290      0.020749      0.002966
  O      -0.007776     -0.060032     -1.064690
  C       0.988232     -0.021549     -0.009032
  H      -1.615823      0.922809     -0.050017
  H      -1.655489     -0.852742      0.047177
  H       1.653181      0.852806     -0.069662
  H       1.617875     -0.922838      0.027553
