8
Coordinates from ORCA-job file
  C   0.00809019364740      0.06069601415773      1.11560514939574
  C   -0.98828998840321      0.02074910864840      0.00296600771930
  O   -0.00777569121482     -0.06003152874004     -1.06468964261623
  C   0.98823237070053     -0.02154866561686     -0.00903231176388
  H   -1.61582307365666      0.92280850799364     -0.05001744887073
  H   -1.65548942994091     -0.85274179935302      0.04717683712002
  H   1.65318054804029      0.85280648142363     -0.06966207186571
  H   1.61787507082736     -0.92283811851348      0.02755348088150
