46
Coordinates from ORCA-job file
  C   5.13392162574690     -0.14166187843660     -0.90502835448940
  O   4.51601474683094     -0.35525252499739      0.35204642084908
  C   3.19182448658136     -0.24368956516410      0.46375806982900
  C   2.35686742065617      0.06069336724366     -0.62231827514046
  C   0.98221772041924      0.15311328761576     -0.40318119730546
  O   0.09597600948627      0.43536761651565     -1.35985019309162
  C   0.54812857175416      0.70874633572185     -2.67672767138812
  C   0.44942106587737     -0.04331099625209      0.88749319758833
  S   -1.25621873885187      0.07623061678911      1.24499416364159
  C   -2.08913445865073     -1.14909119674958      0.23219422978077
  C   -1.38618723130973     -2.16214314722019     -0.41334994334107
  C   -2.10547529822091     -3.12141971861944     -1.12749408345830
  C   -3.49762673976707     -3.06251013450531     -1.18662071140924
  C   -4.18468889989426     -2.04319703153580     -0.52521495716202
  C   -3.48329873222019     -1.08126356633400      0.19869453152680
  C   -1.91454463166088      1.68506753879515      0.58099158977903
  C   -2.48379799205003      1.77868255616299     -0.84412691839273
  C   -1.67611280008034      3.08804154410319     -1.02453561405281
  C   -0.91627528313576      2.82141302440807      0.29616671824484
  C   1.30938875902973     -0.34577207181489      1.97430699541003
  O   0.73114473367469     -0.51307659560112      3.16413335695815
  C   1.54341158391753     -0.81062105663456      4.28794550259975
  C   2.67732913808475     -0.45157338853673      1.75421546187235
  H   6.20700592927743     -0.28494397475798     -0.74700977212506
  H   4.94745593867237      0.88138329129329     -1.26392937428920
  H   4.77110916989540     -0.86667591623556     -1.64834612468765
  H   2.76509411899411      0.22240419054271     -1.61563449515487
  H   -0.34814046142369      0.93952982619948     -3.26195006035529
  H   1.05571896057839     -0.16750171452040     -3.10444719688667
  H   1.22507546063944      1.57577655721889     -2.67888021931505
  H   -0.29772045624612     -2.21432299931365     -0.36110579642369
  H   -1.56772855728701     -3.92061442561010     -1.63941672374704
  H   -4.05070195353651     -3.81830676083473     -1.74604899297254
  H   -5.27376091397082     -1.99669929041649     -0.56437558293899
  H   -4.02152459647073     -0.28934555509384      0.72499155473824
  H   -2.64561894223520      1.94781546502308      1.35612933106060
  H   -2.15739958251482      0.96708387564332     -1.50287320374203
  H   -3.57685366298506      1.86293922292470     -0.88377337793801
  H   -1.05016615797803      3.13250698008110     -1.92467116248267
  H   -2.30441218379334      3.98604266974405     -0.98251561138436
  H   -0.92056950599277      3.62190207581201      1.04530036631075
  H   0.11629980403160      2.48465964535193      0.14452044293265
  H   2.28391852958126     -0.01532374226811      4.45604676849887
  H   0.86668204544475     -0.87241412738593      5.14542650440547
  H   2.05703926138968     -1.77326504791453      4.15057245629196
  H   3.37671269971234     -0.68550326043687      2.55349795135608
