46
Coordinates from ORCA-job file E -1360.174010496127
  C       5.491500     -0.281800     -0.605400
  O       4.641900     -0.359400      0.534700
  C       3.244900     -0.232000      0.495400
  C       2.541600     -0.011700     -0.701500
  C       1.139700      0.110300     -0.696000
  O       0.412600      0.331100     -1.875700
  C       0.986900      0.478000     -3.169600
  C       0.443800      0.010500      0.521100
  S      -1.311400      0.172800      0.561100
  C      -2.247600     -1.223900      0.064800
  C      -2.402200     -1.531700     -1.293400
  C      -3.148100     -2.650800     -1.676800
  C      -3.740000     -3.464300     -0.705600
  C      -3.586000     -3.159200      0.650300
  C      -2.840400     -2.040400      1.035800
  C      -2.075600      1.787200      0.406900
  C      -2.236300      2.245200     -1.038100
  C      -1.260100      3.385200     -0.783200
  C      -1.114900      2.943700      0.666600
  C       1.138100     -0.209500      1.722100
  O       0.407300     -0.302500      2.918400
  C       0.981700     -0.523200      4.202200
  C       2.539200     -0.329700      1.696800
  H       6.544200     -0.416500     -0.282700
  H       5.392500      0.713300     -1.088400
  H       5.235700     -1.085500     -1.327800
  H       3.082900      0.064200     -1.632500
  H       0.176000      0.650300     -3.906600
  H       1.533400     -0.446300     -3.452200
  H       1.672800      1.351200     -3.185600
  H      -1.948800     -0.910800     -2.053700
  H      -3.267100     -2.887600     -2.726200
  H      -4.316900     -4.330300     -1.003300
  H      -4.043500     -3.789400      1.401900
  H      -2.724000     -1.811100      2.087700
  H      -3.018500      1.868900      0.990300
  H      -1.863800      1.527200     -1.797100
  H      -3.264300      2.612600     -1.249500
  H      -0.315000      3.270800     -1.358500
  H      -1.734200      4.386200     -0.881600
  H      -1.537800      3.688400      1.375700
  H      -0.075000      2.643100      0.915400
  H       1.677700      0.303800      4.456400
  H       0.172700     -0.552000      4.960500
  H       1.518500     -1.495200      4.218400
  H       3.095700     -0.499300      2.608500
46
Coordinates from ORCA-job file E -1360.202335566448
  C       5.314896     -0.250710     -0.631471
  O       4.546051     -0.341137      0.552129
  C       3.198107     -0.222287      0.513751
  C       2.502145     -0.005962     -0.683916
  C       1.112448      0.107600     -0.657992
  O       0.378448      0.318264     -1.778665
  C       1.000729      0.460357     -3.041496
  C       0.422811      0.005603      0.559232
  S      -1.320930      0.155053      0.600611
  C      -2.246368     -1.236944      0.064246
  C      -2.360904     -1.538966     -1.298460
  C      -3.100429     -2.652186     -1.694562
  C      -3.719070     -3.458116     -0.734710
  C      -3.599038     -3.153203      0.623924
  C      -2.861682     -2.041431      1.027531
  C      -2.063979      1.780357      0.379138
  C      -2.196587      2.242129     -1.086611
  C      -1.198732      3.384122     -0.813153
  C      -1.084008      2.936027      0.657000
  C       1.126919     -0.209709      1.756247
  O       0.420577     -0.301509      2.908231
  C       1.077554     -0.519375      4.141715
  C       2.515560     -0.324297      1.727902
  H       6.369395     -0.375382     -0.352548
  H       5.183027      0.736881     -1.105308
  H       5.033785     -1.049414     -1.338922
  H       3.039970      0.072396     -1.626037
  H       0.208878      0.627625     -3.783501
  H       1.554146     -0.456349     -3.306279
  H       1.681670      1.328065     -3.040763
  H      -1.877047     -0.914627     -2.048276
  H      -3.194007     -2.892152     -2.752292
  H      -4.296082     -4.327781     -1.046205
  H      -4.080104     -3.783193      1.370011
  H      -2.765788     -1.804381      2.086726
  H      -3.003385      1.852207      0.947103
  H      -1.830071      1.521776     -1.830999
  H      -3.209514      2.604114     -1.318734
  H      -0.255163      3.268847     -1.368051
  H      -1.644318      4.382776     -0.926301
  H      -1.502662      3.669546      1.360571
  H      -0.064765      2.625966      0.936529
  H       1.772120      0.308673      4.362205
  H       0.307989     -0.559361      4.923454
  H       1.624528     -1.477211      4.126029
  H       3.082680     -0.492800      2.640966
46
Coordinates from ORCA-job file E -1360.212271059047
  C       5.235647     -0.218038     -0.652143
  O       4.496610     -0.316615      0.548261
  C       3.171962     -0.206000      0.512016
  C       2.462333      0.006253     -0.681287
  C       1.074280      0.109462     -0.626223
  O       0.309332      0.311633     -1.699883
  C       0.919553      0.455459     -2.968171
  C       0.404039      0.002825      0.607751
  S      -1.327915      0.137384      0.683737
  C      -2.240683     -1.241960      0.079766
  C      -2.311237     -1.524428     -1.289752
  C      -3.048147     -2.626831     -1.714325
  C      -3.700967     -3.433737     -0.778772
  C      -3.619792     -3.143979      0.585004
  C      -2.887413     -2.043756      1.022664
  C      -2.041322      1.765944      0.355459
  C      -2.136931      2.204497     -1.128223
  C      -1.124618      3.345458     -0.849237
  C      -1.047876      2.918211      0.638892
  C       1.129544     -0.208276      1.801408
  O       0.436104     -0.301373      2.932973
  C       1.126702     -0.516474      4.147736
  C       2.515950     -0.314144      1.745737
  H       6.289393     -0.337438     -0.382729
  H       5.091324      0.765760     -1.123175
  H       4.949278     -1.014241     -1.355558
  H       2.982843      0.088242     -1.631177
  H       0.110721      0.614520     -3.688279
  H       1.475662     -0.453653     -3.240449
  H       1.592924      1.325175     -2.979268
  H      -1.794589     -0.893998     -2.014790
  H      -3.112314     -2.857583     -2.778349
  H      -4.277371     -4.297297     -1.114845
  H      -4.128696     -3.777365      1.312490
  H      -2.817034     -1.810888      2.086581
  H      -2.985306      1.834579      0.907641
  H      -1.772575      1.465275     -1.848846
  H      -3.140023      2.559135     -1.391837
  H      -0.174287      3.220699     -1.381629
  H      -1.543406      4.346704     -0.994647
  H      -1.468859      3.656307      1.329719
  H      -0.047154      2.601632      0.960400
  H       1.817104      0.313514      4.358378
  H       0.367650     -0.565126      4.933989
  H       1.682302     -1.465636      4.120041
  H       3.107058     -0.479932      2.642946
46
Coordinates from ORCA-job file E -1360.218527144175
  C       5.206383     -0.191617     -0.671827
  O       4.476660     -0.297708      0.535472
  C       3.153140     -0.193309      0.510105
  C       2.424497      0.019126     -0.672724
  C       1.036736      0.113763     -0.590430
  O       0.244001      0.318180     -1.640504
  C       0.824670      0.477276     -2.923422
  C       0.387050     -0.000158      0.658544
  S      -1.338764      0.125834      0.786902
  C      -2.236331     -1.235890      0.107178
  C      -2.267033     -1.493191     -1.268624
  C      -3.002598     -2.581913     -1.729141
  C      -3.689306     -3.395721     -0.824700
  C      -3.645262     -3.128920      0.544580
  C      -2.916179     -2.042660      1.021669
  C      -2.020596      1.746317      0.336976
  C      -2.087053      2.137260     -1.162557
  C      -1.064608      3.276666     -0.901110
  C      -1.018932      2.897953      0.603757
  C       1.136113     -0.210896      1.843946
  O       0.455553     -0.308445      2.979588
  C       1.165435     -0.521434      4.185880
  C       2.520816     -0.309243      1.758586
  H       6.260010     -0.307926     -0.403900
  H       5.055420      0.791761     -1.139361
  H       4.919429     -0.985596     -1.375937
  H       2.927620      0.108195     -1.630882
  H      -0.006657      0.632705     -3.617542
  H       1.383609     -0.422590     -3.215418
  H       1.488164      1.353220     -2.943159
  H      -1.720846     -0.855770     -1.964749
  H      -3.038446     -2.796316     -2.798534
  H      -4.264467     -4.248851     -1.190197
  H      -4.181124     -3.768566      1.247762
  H      -2.872117     -1.822497      2.090127
  H      -2.970524      1.823485      0.876249
  H      -1.727225      1.369470     -1.852207
  H      -3.083695      2.483743     -1.456169
  H      -0.107482      3.132423     -1.415017
  H      -1.461088      4.278914     -1.090716
  H      -1.441873      3.655483      1.271137
  H      -0.032476      2.582690      0.965232
  H       1.851989      0.312014      4.390233
  H       0.412510     -0.577922      4.976347
  H       1.728616     -1.464669      4.148988
  H       3.136061     -0.474771      2.639574
46
Coordinates from ORCA-job file E -1360.222744752458
  C       5.242915     -0.178008     -0.646338
  O       4.495603     -0.289306      0.552903
  C       3.170116     -0.188968      0.511929
  C       2.446441      0.022384     -0.673070
  C       1.056997      0.110613     -0.593153
  O       0.271160      0.312248     -1.648012
  C       0.862600      0.472993     -2.930625
  C       0.396826     -0.006516      0.657273
  S      -1.327925      0.107344      0.858442
  C      -2.232391     -1.230902      0.112524
  C      -2.279220     -1.464408     -1.267035
  C      -3.036425     -2.537014     -1.731733
  C      -3.724461     -3.353673     -0.831729
  C      -3.662607     -3.108751      0.539412
  C      -2.913293     -2.038981      1.025454
  C      -2.014348      1.720998      0.336237
  C      -2.157604      2.116792     -1.155061
  C      -1.118083      3.250334     -0.940594
  C      -1.002344      2.873655      0.561133
  C       1.151667     -0.218288      1.847507
  O       0.462143     -0.318715      2.978471
  C       1.170060     -0.528658      4.190512
  C       2.535405     -0.310598      1.760644
  H       6.290834     -0.293020     -0.356601
  H       5.096256      0.805353     -1.114416
  H       4.967974     -0.970140     -1.356624
  H       2.951728      0.115775     -1.629519
  H       0.029946      0.623218     -3.625302
  H       1.428387     -0.423869     -3.216109
  H       1.522180      1.351576     -2.944265
  H      -1.729633     -0.825719     -1.954867
  H      -3.087366     -2.735968     -2.803706
  H      -4.315837     -4.193301     -1.202832
  H      -4.200608     -3.750494      1.239367
  H      -2.852546     -1.829396      2.095202
  H      -2.936873      1.773313      0.924899
  H      -1.852324      1.350373     -1.865865
  H      -3.170934      2.455700     -1.395899
  H      -0.188252      3.115283     -1.505562
  H      -1.510003      4.257566     -1.115784
  H      -1.390143      3.624864      1.257488
  H      -0.005714      2.559872      0.894842
  H       1.849725      0.308898      4.398725
  H       0.408545     -0.592683      4.971980
  H       1.741973     -1.466095      4.153855
  H       3.159257     -0.475780      2.635904
46
Coordinates from ORCA-job file E -1360.224478234318
  C       5.191787     -0.165794     -0.690107
  O       4.479015     -0.297389      0.527988
  C       3.148655     -0.192214      0.524915
  C       2.401656      0.042851     -0.637533
  C       1.014042      0.135606     -0.530514
  O       0.215065      0.370683     -1.574843
  C       0.783405      0.556182     -2.864761
  C       0.375995     -0.000363      0.723026
  S      -1.348765      0.122578      0.980495
  C      -2.219729     -1.203181      0.162988
  C      -2.198519     -1.432857     -1.216989
  C      -2.950134     -2.490193     -1.725342
  C      -3.700647     -3.298499     -0.868617
  C      -3.706223     -3.060502      0.504889
  C      -2.962877     -2.005656      1.033345
  C      -2.003499      1.701573      0.311369
  C      -2.101030      1.996626     -1.200420
  C      -1.079076      3.145519     -1.029738
  C      -1.010529      2.874630      0.492046
  C       1.155817     -0.233299      1.892516
  O       0.496730     -0.350964      3.046700
  C       1.239019     -0.578576      4.235320
  C       2.536666     -0.330810      1.780468
  H       6.249599     -0.287825     -0.436743
  H       5.031234      0.827762     -1.134698
  H       4.891102     -0.945145     -1.406252
  H       2.888979      0.154000     -1.602043
  H      -0.059666      0.729934     -3.542406
  H       1.335947     -0.340984     -3.178695
  H       1.451769      1.429624     -2.868300
  H      -1.599107     -0.806935     -1.872571
  H      -2.947290     -2.684066     -2.798562
  H      -4.285958     -4.124597     -1.275198
  H      -4.292102     -3.694132      1.171807
  H      -2.956453     -1.801527      2.105043
  H      -2.946896      1.781856      0.866978
  H      -1.776426      1.186071     -1.857089
  H      -3.111034      2.312269     -1.489378
  H      -0.130517      2.981822     -1.557135
  H      -1.468934      4.137805     -1.286957
  H      -1.424411      3.669675      1.124468
  H      -0.022270      2.595047      0.881263
  H       1.922383      0.259672      4.434924
  H       0.502301     -0.659301      5.040334
  H       1.813410     -1.513850      4.163579
  H       3.177315     -0.513224      2.640429
46
Coordinates from ORCA-job file E -1360.225658942479
  C       5.243167     -0.146779     -0.655235
  O       4.510709     -0.337457      0.543239
  C       3.181466     -0.209547      0.529582
  C       2.453944      0.106505     -0.625455
  C       1.065393      0.213319     -0.534252
  O       0.290639      0.531999     -1.575376
  C       0.882953      0.803050     -2.838862
  C       0.405399      0.012192      0.696393
  S      -1.322748      0.145979      0.962077
  C      -2.209523     -1.210104      0.202683
  C      -2.137665     -1.562366     -1.148832
  C      -2.919693     -2.623639     -1.600331
  C      -3.749912     -3.317604     -0.717425
  C      -3.802909     -2.962076      0.629107
  C      -3.029314     -1.901723      1.100307
  C      -2.003192      1.705805      0.256400
  C      -2.200504      1.962521     -1.250118
  C      -1.178360      3.119280     -1.173637
  C      -1.010500      2.888162      0.345566
  C       1.166883     -0.298085      1.860119
  O       0.488585     -0.472426      2.997546
  C       1.207089     -0.776095      4.183951
  C       2.547826     -0.411376      1.764934
  H       6.295113     -0.303296     -0.396526
  H       5.106134      0.874293     -1.041569
  H       4.938200     -0.876300     -1.420394
  H       2.956451      0.269930     -1.574005
  H       0.053299      1.032000     -3.516704
  H       1.433928     -0.074991     -3.205226
  H       1.557895      1.668626     -2.768421
  H      -1.470412     -1.034697     -1.824042
  H      -2.876571     -2.911711     -2.651227
  H      -4.357872     -4.147009     -1.081579
  H      -4.448983     -3.506903      1.318404
  H      -3.059650     -1.606880      2.150291
  H      -2.911003      1.795888      0.868107
  H      -1.925518      1.138663     -1.912858
  H      -3.230859      2.267092     -1.472391
  H      -0.265172      2.950000     -1.758378
  H      -1.587407      4.103532     -1.432741
  H      -1.386768      3.696151      0.985434
  H       0.002549      2.625846      0.680268
  H       1.894418      0.042417      4.442904
  H       0.455415     -0.896048      4.970032
  H       1.773937     -1.711388      4.067351
  H       3.172945     -0.654850      2.620890
46
Coordinates from ORCA-job file E -1360.224421235383
  C       5.272953     -0.211370     -0.676634
  O       4.549463     -0.343913      0.533978
  C       3.219291     -0.219341      0.526520
  C       2.480783      0.035116     -0.637161
  C       1.091083      0.137264     -0.546564
  O       0.308876      0.362547     -1.606733
  C       0.887575      0.536877     -2.890933
  C       0.439850     -0.001116      0.690490
  S      -1.292447      0.130936      0.970931
  C      -2.169959     -1.202527      0.160641
  C      -2.024590     -1.556358     -1.182805
  C      -2.807576     -2.593728     -1.684943
  C      -3.712733     -3.264792     -0.859458
  C      -3.837063     -2.911346      0.483303
  C      -3.061051     -1.876116      1.003025
  C      -2.020566      1.712713      0.348066
  C      -2.303837      2.038000     -1.128109
  C      -1.343554      3.243812     -1.033324
  C      -1.077584      2.931387      0.455271
  C       1.207310     -0.260767      1.858671
  O       0.531371     -0.392171      3.004557
  C       1.244255     -0.639516      4.206110
  C       2.589630     -0.369852      1.770168
  H       6.327392     -0.356728     -0.422562
  H       5.133405      0.790177     -1.110045
  H       4.960663     -0.976089     -1.403208
  H       2.974751      0.147731     -1.596872
  H       0.051821      0.705422     -3.578734
  H       1.441775     -0.364019     -3.190754
  H       1.556603      1.410146     -2.895784
  H      -1.295312     -1.053092     -1.815482
  H      -2.706225     -2.881432     -2.731982
  H      -4.319784     -4.075350     -1.265158
  H      -4.536919     -3.440809      1.130725
  H      -3.145302     -1.588280      2.052379
  H      -2.903710      1.742958      1.000908
  H      -2.036713      1.267625     -1.857772
  H      -3.358723      2.305412     -1.269473
  H      -0.458530      3.163655     -1.673708
  H      -1.816773      4.217452     -1.210424
  H      -1.452091      3.683259      1.161027
  H      -0.035271      2.701526      0.717732
  H       1.923994      0.194813      4.432228
  H       0.490798     -0.730823      4.994164
  H       1.816976     -1.575341      4.132355
  H       3.215495     -0.574054      2.635375
46
Coordinates from ORCA-job file E -1360.227007815999
  C       5.251401     -0.166141     -0.677364
  O       4.532997     -0.357391      0.528076
  C       3.205808     -0.220402      0.533390
  C       2.465649      0.107149     -0.611416
  C       1.078333      0.219103     -0.507720
  O       0.294848      0.526351     -1.545097
  C       0.874051      0.771609     -2.817367
  C       0.431497      0.015767      0.724881
  S      -1.296582      0.159780      1.008645
  C      -2.173359     -1.185743      0.223642
  C      -1.973907     -1.601656     -1.095201
  C      -2.754698     -2.645269     -1.587957
  C      -3.713324     -3.258140     -0.777920
  C      -3.896113     -2.837817      0.538942
  C      -3.122559     -1.796397      1.049244
  C      -1.997545      1.715656      0.310052
  C      -2.313109      1.927980     -1.180800
  C      -1.322702      3.114751     -1.206014
  C      -1.014974      2.906910      0.294543
  C       1.200810     -0.309709      1.874885
  O       0.529609     -0.493382      3.014076
  C       1.247556     -0.809548      4.195713
  C       2.581149     -0.429832      1.771830
  H       6.305201     -0.337330     -0.437620
  H       5.121746      0.859177     -1.054372
  H       4.927240     -0.885953     -1.443403
  H       2.956927      0.271986     -1.565499
  H       0.040385      1.000779     -3.489844
  H       1.409352     -0.118633     -3.177468
  H       1.560569      1.629616     -2.769393
  H      -1.213007     -1.133475     -1.717460
  H      -2.612224     -2.981138     -2.615873
  H      -4.319123     -4.073657     -1.175880
  H      -4.637775     -3.322466      1.174994
  H      -3.249374     -1.460262      2.079959
  H      -2.861153      1.826425      0.979138
  H      -2.079947      1.095140     -1.851862
  H      -3.364607      2.209567     -1.317795
  H      -0.459171      2.962498     -1.863248
  H      -1.780128      4.083219     -1.441382
  H      -1.341818      3.720943      0.952927
  H       0.028721      2.661200      0.536026
  H       1.938612      0.004090      4.459634
  H       0.498281     -0.931720      4.983428
  H       1.808372     -1.747220      4.071383
  H       3.207883     -0.686516      2.622544
46
Coordinates from ORCA-job file E -1360.227303618422
  C       5.242193     -0.152033     -0.694793
  O       4.528335     -0.382395      0.506557
  C       3.203294     -0.228878      0.528103
  C       2.459572      0.160716     -0.595578
  C       1.074559      0.281657     -0.476576
  O       0.283987      0.655384     -1.487337
  C       0.852757      0.970347     -2.748998
  C       0.434347      0.026543      0.750584
  S      -1.289141      0.187064      1.047200
  C      -2.165959     -1.166851      0.280149
  C      -1.871431     -1.679945     -0.985617
  C      -2.648601     -2.728783     -1.473849
  C      -3.700620     -3.245794     -0.714457
  C      -3.979963     -2.725346      0.549034
  C      -3.207861     -1.681516      1.056558
  C      -1.976824      1.716271      0.280867
  C      -2.319197      1.832809     -1.214509
  C      -1.349248      3.032646     -1.325826
  C      -0.993834      2.901888      0.173772
  C       1.206473     -0.355410      1.880037
  O       0.537402     -0.580430      3.012504
  C       1.255112     -0.952050      4.177995
  C       2.584644     -0.486641      1.761401
  H       6.294435     -0.350918     -0.469903
  H       5.127667      0.890151     -1.027929
  H       4.901566     -0.833607     -1.488126
  H       2.945841      0.366962     -1.544365
  H       0.013722      1.245297     -3.397413
  H       1.376279      0.098392     -3.166650
  H       1.547396      1.818438     -2.659339
  H      -1.045727     -1.278353     -1.570959
  H      -2.430127     -3.143663     -2.458689
  H      -4.303278     -4.064973     -1.109550
  H      -4.795313     -3.134150      1.147073
  H      -3.408665     -1.270419      2.047808
  H      -2.829405      1.876466      0.953742
  H      -2.084354      0.964090     -1.838590
  H      -3.377007      2.091526     -1.348608
  H      -0.501141      2.861674     -1.998467
  H      -1.830235      3.980794     -1.594549
  H      -1.298144      3.749818      0.799433
  H       0.056779      2.665414      0.391386
  H       1.959823     -0.159708      4.469360
  H       0.507042     -1.091574      4.964095
  H       1.800122     -1.893275      4.016220
  H       3.212529     -0.787733      2.596798
46
Coordinates from ORCA-job file E -1360.228023451710
  C       5.261605     -0.146177     -0.692659
  O       4.540989     -0.388324      0.502496
  C       3.215758     -0.234780      0.519531
  C       2.477180      0.165179     -0.603856
  C       1.092369      0.291755     -0.489308
  O       0.309801      0.668805     -1.505444
  C       0.888270      0.939329     -2.773579
  C       0.446184      0.029314      0.735573
  S      -1.276686      0.194809      1.038295
  C      -2.164282     -1.162132      0.289364
  C      -1.858095     -1.707218     -0.960122
  C      -2.639702     -2.759764     -1.434079
  C      -3.709945     -3.245061     -0.679448
  C      -4.004413     -2.687851      0.564908
  C      -3.226486     -1.642145      1.059466
  C      -1.981446      1.716152      0.270675
  C      -2.287191      1.825947     -1.232491
  C      -1.401440      3.093631     -1.298994
  C      -1.051560      2.945345      0.200691
  C       1.214037     -0.365697      1.863657
  O       0.539054     -0.601215      2.990732
  C       1.249919     -0.990930      4.154470
  C       2.592020     -0.500310      1.748827
  H       6.312149     -0.350646     -0.464445
  H       5.151873      0.900175     -1.014446
  H       4.923631     -0.817687     -1.495736
  H       2.967160      0.376840     -1.549847
  H       0.057386      1.218108     -3.430608
  H       1.390746      0.044960     -3.169355
  H       1.603618      1.771840     -2.703854
  H      -1.028077     -1.320493     -1.548162
  H      -2.412015     -3.200549     -2.405512
  H      -4.316216     -4.066320     -1.064451
  H      -4.834650     -3.070578      1.159632
  H      -3.436812     -1.206362      2.038241
  H      -2.859712      1.839876      0.917661
  H      -1.975945      0.982286     -1.858973
  H      -3.356240      2.013831     -1.394001
  H      -0.536315      3.002560     -1.964276
  H      -1.945321      4.012770     -1.547980
  H      -1.398643      3.764210      0.842743
  H       0.006805      2.750486      0.421089
  H       1.961670     -0.208451      4.455472
  H       0.498187     -1.130062      4.937301
  H       1.785800     -1.936207      3.985453
  H       3.214782     -0.809348      2.585347
46
Coordinates from ORCA-job file E -1360.228739532808
  C       5.266426     -0.130870     -0.683076
  O       4.554170     -0.380709      0.514776
  C       3.230113     -0.234579      0.536345
  C       2.485936      0.158123     -0.585769
  C       1.100966      0.282612     -0.467816
  O       0.311998      0.637947     -1.484731
  C       0.882403      0.864894     -2.764181
  C       0.462013      0.028449      0.760807
  S      -1.256875      0.207125      1.072169
  C      -2.146333     -1.129723      0.294773
  C      -1.795855     -1.678005     -0.940441
  C      -2.577040     -2.713525     -1.450854
  C      -3.688564     -3.178567     -0.744169
  C      -4.026705     -2.616485      0.487021
  C      -3.249018     -1.589203      1.018022
  C      -1.965569      1.728100      0.310486
  C      -2.380483      1.797404     -1.168264
  C      -1.512176      3.071456     -1.323034
  C      -1.025817      2.936773      0.140394
  C       1.234013     -0.369618      1.885012
  O       0.564084     -0.613617      3.012119
  C       1.279878     -1.016210      4.167535
  C       2.611564     -0.502120      1.767214
  H       6.319092     -0.330355     -0.461419
  H       5.149609      0.916323     -0.999393
  H       4.928209     -0.800675     -1.487309
  H       2.971585      0.365328     -1.534692
  H       0.048257      1.120571     -3.425466
  H       1.381853     -0.042549     -3.132979
  H       1.597895      1.698891     -2.728096
  H      -0.934620     -1.303025     -1.493957
  H      -2.316740     -3.156693     -2.413079
  H      -4.292920     -3.987653     -1.157132
  H      -4.889477     -2.982998      1.044545
  H      -3.490593     -1.154833      1.990338
  H      -2.795484      1.894151      1.009806
  H      -2.106951      0.940401     -1.795468
  H      -3.459572      1.975985     -1.257625
  H      -0.709907      2.984573     -2.062872
  H      -2.085162      3.983254     -1.526727
  H      -1.294295      3.769009      0.801927
  H       0.044824      2.719993      0.259172
  H       1.998944     -0.241124      4.469618
  H       0.533071     -1.155281      4.954751
  H       1.807672     -1.964038      3.988155
  H       3.235384     -0.809006      2.603563
46
Coordinates from ORCA-job file E -1360.229402714363
  C       5.267584     -0.116020     -0.697391
  O       4.560205     -0.379804      0.500918
  C       3.235604     -0.233033      0.530828
  C       2.485587      0.173273     -0.582289
  C       1.100864      0.294593     -0.455541
  O       0.303340      0.665740     -1.461124
  C       0.862420      0.908964     -2.743232
  C       0.469572      0.028428      0.775224
  S      -1.244686      0.213782      1.101389
  C      -2.138459     -1.117546      0.317180
  C      -1.713849     -1.744538     -0.855285
  C      -2.499207     -2.770611     -1.378441
  C      -3.685212     -3.149037     -0.745147
  C      -4.094057     -2.510906      0.425737
  C      -3.313523     -1.492850      0.970772
  C      -1.951818      1.723808      0.313656
  C      -2.392030      1.753671     -1.158765
  C      -1.563549      3.050744     -1.344514
  C      -1.023885      2.933687      0.101870
  C       1.247734     -0.386724      1.890045
  O       0.582284     -0.650413      3.016230
  C       1.302895     -1.076342      4.160765
  C       2.624204     -0.518446      1.761459
  H       6.321073     -0.317602     -0.481122
  H       5.148986      0.935045     -1.000117
  H       4.927007     -0.776173     -1.508543
  H       2.966214      0.392799     -1.530911
  H       0.020213      1.158979     -3.396615
  H       1.370004      0.010093     -3.121951
  H       1.567947      1.751254     -2.705905
  H      -0.793645     -1.436897     -1.351401
  H      -2.181889     -3.275834     -2.291666
  H      -4.290943     -3.952467     -1.166849
  H      -5.015348     -2.810148      0.926950
  H      -3.609967     -1.001483      1.899751
  H      -2.772922      1.910109      1.018560
  H      -2.095062      0.895846     -1.772391
  H      -3.477422      1.893408     -1.241291
  H      -0.785426      2.988167     -2.113292
  H      -2.170840      3.944365     -1.527589
  H      -1.264289      3.771011      0.767904
  H       0.049747      2.714954      0.178334
  H       2.028409     -0.310990      4.471982
  H       0.559509     -1.223692      4.949809
  H       1.824111     -2.023995      3.961984
  H       3.252318     -0.837270      2.590026
46
Coordinates from ORCA-job file E -1360.230160642030
  C       5.243046     -0.108625     -0.739336
  O       4.552148     -0.365639      0.471013
  C       3.225908     -0.225219      0.517455
  C       2.458696      0.170768     -0.587257
  C       1.074708      0.278944     -0.441318
  O       0.253650      0.639361     -1.433108
  C       0.786114      0.913811     -2.720911
  C       0.463506      0.015011      0.801087
  S      -1.245607      0.197449      1.137751
  C      -2.137810     -1.119339      0.322703
  C      -1.634300     -1.816251     -0.776217
  C      -2.415186     -2.828340     -1.332572
  C      -3.673520     -3.122429     -0.802935
  C      -4.158348     -2.417480      0.298233
  C      -3.384229     -1.413203      0.877980
  C      -1.936141      1.710986      0.338655
  C      -2.366288      1.726827     -1.137214
  C      -1.547645      3.031415     -1.318857
  C      -1.005708      2.918520      0.127227
  C       1.259128     -0.391154      1.907972
  O       0.609836     -0.654433      3.044438
  C       1.349628     -1.064517      4.183465
  C       2.634476     -0.511317      1.758176
  H       6.300606     -0.298576     -0.531917
  H       5.111119      0.938429     -1.050263
  H       4.899245     -0.779826     -1.539971
  H       2.925291      0.388652     -1.543232
  H      -0.075017      1.126976     -3.363233
  H       1.330829      0.041174     -3.109100
  H       1.451505      1.788577     -2.686527
  H      -0.654196     -1.578434     -1.186303
  H      -2.035532     -3.390962     -2.186425
  H      -4.275016     -3.916411     -1.247760
  H      -5.135960     -2.653625      0.720349
  H      -3.743187     -0.868033      1.753324
  H      -2.763340      1.916475      1.031313
  H      -2.030963      0.874136     -1.734677
  H      -3.452141      1.838989     -1.248616
  H      -0.771407      2.983198     -2.093709
  H      -2.169076      3.917374     -1.491954
  H      -1.227077      3.757781      0.797445
  H       0.064031      2.682687      0.189088
  H       2.070420     -0.289694      4.481868
  H       0.616711     -1.213952      4.981948
  H       1.879549     -2.007213      3.983960
  H       3.277343     -0.822970      2.577962
46
Coordinates from ORCA-job file E -1360.230646568643
  C       5.240050     -0.118293     -0.762032
  O       4.556651     -0.377918      0.452232
  C       3.231519     -0.228867      0.509786
  C       2.459251      0.181536     -0.585942
  C       1.076946      0.295434     -0.429612
  O       0.251044      0.663659     -1.413931
  C       0.776041      0.932024     -2.705823
  C       0.472163      0.022247      0.813675
  S      -1.235894      0.198596      1.157635
  C      -2.124806     -1.114122      0.327818
  C      -1.561089     -1.892659     -0.682597
  C      -2.337829     -2.899248     -1.254736
  C      -3.650325     -3.108407     -0.826737
  C      -4.195124     -2.322842      0.188540
  C      -3.427418     -1.322692      0.783929
  C      -1.934311      1.712255      0.360645
  C      -2.407166      1.712654     -1.101344
  C      -1.614766      3.029397     -1.309814
  C      -1.009883      2.916571      0.110914
  C       1.272950     -0.396146      1.911879
  O       0.629281     -0.666952      3.049687
  C       1.374373     -1.085631      4.182318
  C       2.646789     -0.520990      1.752397
  H       6.298123     -0.315141     -0.563761
  H       5.111095      0.931018     -1.066457
  H       4.885984     -0.783676     -1.563094
  H       2.920583      0.404179     -1.543522
  H      -0.087861      1.150148     -3.342876
  H       1.311954      0.054887     -3.096019
  H       1.447884      1.802436     -2.677184
  H      -0.536289     -1.725963     -1.010639
  H      -1.911732     -3.524562     -2.040232
  H      -4.248140     -3.898722     -1.282878
  H      -5.215853     -2.493227      0.533216
  H      -3.834708     -0.716744      1.596109
  H      -2.742836      1.932400      1.070950
  H      -2.064332      0.863385     -1.701493
  H      -3.497368      1.799464     -1.189275
  H      -0.874547      2.999870     -2.119298
  H      -2.257420      3.906840     -1.447313
  H      -1.191360      3.756744      0.791550
  H       0.059764      2.671536      0.119836
  H       2.096589     -0.312822      4.482813
  H       0.645081     -1.240640      4.983093
  H       1.903438     -2.026621      3.972876
  H       3.293305     -0.844496      2.564711
46
Coordinates from ORCA-job file E -1360.231382672984
  C       5.220307     -0.146143     -0.799658
  O       4.552064     -0.384950      0.427425
  C       3.228088     -0.233484      0.499411
  C       2.443465      0.163782     -0.592566
  C       1.063295      0.277633     -0.420940
  O       0.225311      0.633091     -1.398216
  C       0.733617      0.889140     -2.698608
  C       0.472814      0.019087      0.831841
  S      -1.236104      0.176549      1.174435
  C      -2.114055     -1.122755      0.303677
  C      -1.499064     -1.961585     -0.623751
  C      -2.264220     -2.958710     -1.227598
  C      -3.615282     -3.102232     -0.909353
  C      -4.211938     -2.258052      0.027036
  C      -3.458949     -1.264722      0.651474
  C      -1.935076      1.710286      0.409675
  C      -2.438266      1.732394     -1.041572
  C      -1.649330      3.051433     -1.245501
  C      -1.000997      2.906353      0.152826
  C       1.285582     -0.380859      1.926919
  O       0.655662     -0.631974      3.076081
  C       1.415151     -1.023660      4.209077
  C       2.657835     -0.506333      1.753422
  H       6.281016     -0.338199     -0.611493
  H       5.085453      0.896893     -1.122148
  H       4.855926     -0.827333     -1.582647
  H       2.893878      0.374140     -1.558170
  H      -0.137589      1.104635     -3.326707
  H       1.262855      0.007797     -3.088162
  H       1.407507      1.758757     -2.685039
  H      -0.440204     -1.859342     -0.857643
  H      -1.796923     -3.629133     -1.949695
  H      -4.204221     -3.885131     -1.389287
  H      -5.264912     -2.376052      0.286313
  H      -3.910532     -0.614899      1.404656
  H      -2.726655      1.938507      1.136520
  H      -2.087966      0.895613     -1.656504
  H      -3.529887      1.807308     -1.117703
  H      -0.939809      3.042975     -2.081762
  H      -2.296587      3.932218     -1.336524
  H      -1.138500      3.736712      0.854768
  H       0.063185      2.640767      0.116249
  H       2.134631     -0.239300      4.485726
  H       0.695096     -1.167848      5.020079
  H       1.949142     -1.964382      4.012124
  H       3.314986     -0.819091      2.561513
46
Coordinates from ORCA-job file E -1360.232157899890
  C       5.188964     -0.160886     -0.837245
  O       4.540467     -0.379757      0.403863
  C       3.217599     -0.238823      0.492010
  C       2.414407      0.126847     -0.598328
  C       1.036991      0.236595     -0.407243
  O       0.181037      0.562836     -1.377154
  C       0.665728      0.799353     -2.689434
  C       0.467462      0.004159      0.860352
  S      -1.241060      0.144562      1.202374
  C      -2.101881     -1.130041      0.273956
  C      -1.445699     -2.006881     -0.585125
  C      -2.195212     -2.987548     -1.235305
  C      -3.571607     -3.077586     -1.028587
  C      -4.210995     -2.192785     -0.159355
  C      -3.476146     -1.215380      0.508752
  C      -1.929691      1.704895      0.475533
  C      -2.463866      1.750160     -0.964030
  C      -1.667614      3.064632     -1.167293
  C      -0.975058      2.882581      0.205427
  C       1.297143     -0.362975      1.952267
  O       0.687037     -0.581833      3.117112
  C       1.467171     -0.932696      4.249407
  C       2.667785     -0.483271      1.761425
  H       6.253978     -0.338339     -0.660751
  H       5.038825      0.872742     -1.181982
  H       4.819247     -0.864015     -1.598013
  H       2.848995      0.317081     -1.575330
  H      -0.215466      1.011130     -3.304277
  H       1.184876     -0.088534     -3.077459
  H       1.342353      1.666816     -2.699257
  H      -0.367265     -1.951515     -0.733085
  H      -1.694957     -3.685463     -1.907715
  H      -4.148306     -3.846513     -1.544680
  H      -5.286033     -2.265756      0.010375
  H      -3.966963     -0.532157      1.206227
  H      -2.699377      1.948566      1.220080
  H      -2.115680      0.922338     -1.592497
  H      -3.556163      1.823462     -1.025904
  H      -0.991533      3.070533     -2.030237
  H      -2.309396      3.953321     -1.210568
  H      -1.061069      3.704630      0.924782
  H       0.079400      2.590429      0.122914
  H       2.185881     -0.134851      4.486613
  H       0.761516     -1.054682      5.076268
  H       2.003638     -1.876111      4.074246
  H       3.340332     -0.769372      2.566874
46
Coordinates from ORCA-job file E -1360.232730496521
  C       5.164588     -0.146707     -0.869398
  O       4.533040     -0.358544      0.381494
  C       3.209867     -0.235546      0.482770
  C       2.388920      0.098060     -0.605374
  C       1.012990      0.196522     -0.398464
  O       0.140137      0.498790     -1.361111
  C       0.603072      0.734157     -2.681447
  C       0.462858     -0.018194      0.881901
  S      -1.243657      0.108786      1.233041
  C      -2.090998     -1.140427      0.257076
  C      -1.410600     -2.079479     -0.510734
  C      -2.153411     -3.036883     -1.203645
  C      -3.545640     -3.043440     -1.126682
  C      -4.209611     -2.095854     -0.345500
  C      -3.483814     -1.140981      0.363064
  C      -1.921908      1.687678      0.530008
  C      -2.474678      1.746519     -0.902155
  C      -1.679282      3.061799     -1.101332
  C      -0.953062      2.850898      0.249560
  C       1.309618     -0.353433      1.970281
  O       0.717463     -0.550058      3.148213
  C       1.516721     -0.870640      4.276148
  C       2.679007     -0.462986      1.763515
  H       6.233930     -0.305998     -0.702322
  H       4.995567      0.879793     -1.226536
  H       4.796949     -0.865371     -1.616591
  H       2.809156      0.275537     -1.590928
  H      -0.288327      0.943061     -3.281986
  H       1.118804     -0.152637     -3.076627
  H       1.276325      1.603719     -2.703563
  H      -0.321640     -2.088157     -0.562344
  H      -1.633843     -3.781430     -1.808170
  H      -4.116079     -3.795919     -1.673001
  H      -5.298095     -2.103724     -0.275746
  H      -3.998076     -0.408415      0.990152
  H      -2.675534      1.941005      1.287083
  H      -2.127130      0.926760     -1.540115
  H      -3.567911      1.814963     -0.954904
  H      -1.028127      3.085023     -1.983881
  H      -2.319008      3.952908     -1.107039
  H      -1.003011      3.665380      0.981217
  H       0.093446      2.542900      0.134761
  H       2.237321     -0.065639      4.480671
  H       0.824893     -0.974058      5.117036
  H       2.052276     -1.817336      4.116118
  H       3.366293     -0.722502      2.565485
46
Coordinates from ORCA-job file E -1360.233047415707
  C       5.130958     -0.143429     -0.906819
  O       4.518022     -0.346210      0.354374
  C       3.194906     -0.236817      0.471055
  C       2.355577      0.060572     -0.614494
  C       0.981850      0.151664     -0.391062
  O       0.092142      0.423198     -1.347214
  C       0.534106      0.658578     -2.674472
  C       0.452714     -0.037981      0.902881
  S      -1.253276      0.076001      1.257576
  C      -2.080037     -1.146008      0.234202
  C      -1.379559     -2.141233     -0.437087
  C      -2.102305     -3.085188     -1.170027
  C      -3.494049     -3.023955     -1.225740
  C      -4.179183     -2.019395     -0.537637
  C      -3.474982     -1.076772      0.207550
  C      -1.918222      1.679823      0.591339
  C      -2.488279      1.763451     -0.833862
  C      -1.683651      3.073655     -1.023423
  C      -0.927604      2.821908      0.303219
  C       1.315965     -0.337427      1.987132
  O       0.742056     -0.504220      3.178899
  C       1.558012     -0.799866      4.301006
  C       2.683797     -0.441396      1.763504
  H       6.204237     -0.289029     -0.752782
  H       4.946608      0.877029     -1.273921
  H       4.761702     -0.873946     -1.641628
  H       2.760289      0.218037     -1.609885
  H      -0.366515      0.867996     -3.260721
  H       1.043671     -0.227903     -3.078299
  H       1.206452      1.528410     -2.707684
  H      -0.290503     -2.197965     -0.393466
  H      -1.565157     -3.873332     -1.699586
  H      -4.048709     -3.766668     -1.800876
  H      -5.268503     -1.973455     -0.571106
  H      -4.010868     -0.297736      0.755407
  H      -2.652398      1.942233      1.363588
  H      -2.154347      0.950946     -1.486865
  H      -3.581772      1.841227     -0.874275
  H      -1.055949      3.111013     -1.922900
  H      -2.312486      3.971733     -0.989986
  H      -0.942168      3.626943      1.047386
  H       0.109463      2.495658      0.158788
  H       2.291847      0.001499      4.468789
  H       0.881451     -0.871744      5.157587
  H       2.079013     -1.757904      4.159894
  H       3.385482     -0.672093      2.561642
46
Coordinates from ORCA-job file E -1360.233055646376
  C       5.136345     -0.134971     -0.904152
  O       4.518765     -0.346273      0.353422
  C       3.194581     -0.239108      0.465317
  C       2.358753      0.063984     -0.620985
  C       0.984266      0.155454     -0.401168
  O       0.097775      0.439441     -1.356899
  C       0.545214      0.693484     -2.679063
  C       0.451564     -0.041735      0.890131
  S      -1.254386      0.075554      1.244932
  C      -2.086706     -1.150446      0.231800
  C      -1.388481     -2.162659     -0.417731
  C      -2.113069     -3.117416     -1.134056
  C      -3.504770     -3.053320     -1.191225
  C      -4.187497     -2.034458     -0.523185
  C      -3.481328     -1.078675      0.203392
  C      -1.916783      1.681289      0.579835
  C      -2.478183      1.773857     -0.848703
  C      -1.674256      3.086371     -1.023939
  C      -0.922664      2.822843      0.302596
  C       1.312075     -0.344116      1.976137
  O       0.734601     -0.512853      3.166101
  C       1.547006     -0.813396      4.289363
  C       2.680276     -0.447675      1.755686
  H       6.209427     -0.278319     -0.746129
  H       4.950586      0.887345     -1.265492
  H       4.772828     -0.861615     -1.645589
  H       2.766720      0.227911     -1.614010
  H      -0.352998      0.915889     -3.264461
  H       1.051751     -0.189068     -3.095040
  H       1.221834      1.560520     -2.696686
  H      -0.299820     -2.221163     -0.369684
  H      -1.578291     -3.917534     -1.647759
  H      -4.061373     -3.804585     -1.753149
  H      -5.276568     -1.985482     -0.559230
  H      -4.015552     -0.287307      0.734452
  H      -2.653815      1.940210      1.350626
  H      -2.142304      0.965358     -1.505993
  H      -3.571369      1.852534     -0.894657
  H      -1.042630      3.131908     -1.920192
  H      -2.304287      3.983375     -0.985950
  H      -0.938606      3.622613      1.052447
  H       0.114064      2.494730      0.160076
  H       2.284872     -0.016376      4.460396
  H       0.868799     -0.882173      5.145077
  H       2.063393     -1.774017      4.148246
  H       3.380040     -0.680032      2.555093
46
Coordinates from ORCA-job file E -1360.233069838747
  C       5.133999     -0.150462     -0.904535
  O       4.515592     -0.358315      0.353134
  C       3.191614     -0.244444      0.464612
  C       2.357124      0.059113     -0.622332
  C       0.982656      0.154305     -0.403582
  O       0.097550      0.440144     -1.360105
  C       0.549051      0.705466     -2.678683
  C       0.449100     -0.040951      0.887207
  S      -1.257168      0.076984      1.241689
  C      -2.088191     -1.148497      0.228031
  C      -1.383732     -2.153819     -0.426990
  C      -2.102521     -3.114655     -1.140234
  C      -3.495269     -3.065522     -1.187469
  C      -4.184131     -2.054208     -0.515127
  C      -3.483426     -1.090593      0.206739
  C      -1.916903      1.686467      0.581920
  C      -2.484040      1.783374     -0.844111
  C      -1.674658      3.091890     -1.022042
  C      -0.918260      2.823280      0.300260
  C       1.308414     -0.341569      1.974597
  O       0.729728     -0.505988      3.164616
  C       1.540689     -0.804699      4.289121
  C       2.676404     -0.449282      1.755113
  H       6.206626     -0.297223     -0.746473
  H       4.951492      0.872334     -1.266229
  H       4.768390     -0.876012     -1.645950
  H       2.765865      0.219411     -1.615684
  H      -0.347169      0.936012     -3.264098
  H       1.053839     -0.174551     -3.101998
  H       1.228393      1.570612     -2.686369
  H      -0.294470     -2.199520     -0.385323
  H      -1.562943     -3.907558     -1.659957
  H      -4.047712     -3.821963     -1.746604
  H      -5.273817     -2.016092     -0.544752
  H      -4.022989     -0.305019      0.740895
  H      -2.648511      1.947458      1.357075
  H      -2.158097      0.972830     -1.504349
  H      -3.576923      1.869442     -0.884026
  H      -1.046568      3.134552     -1.920678
  H      -2.300651      3.991531     -0.981193
  H      -0.927600      3.623189      1.050067
  H       0.116017      2.489832      0.153096
  H       2.281834     -0.010194      4.457892
  H       0.862708     -0.866794      5.145600
  H       2.053297     -1.767971      4.152054
  H       3.375167     -0.682426      2.555179
46
Coordinates from ORCA-job file E -1360.233028583293
  C       5.133273     -0.154757     -0.908647
  O       4.515853     -0.364478      0.349375
  C       3.192121     -0.245333      0.462639
  C       2.357550      0.064267     -0.621948
  C       0.983332      0.160593     -0.401748
  O       0.097389      0.448256     -1.356855
  C       0.550613      0.724931     -2.672682
  C       0.450632     -0.038953      0.888256
  S      -1.254829      0.078222      1.247150
  C      -2.085858     -1.146150      0.231208
  C      -1.381431     -2.168128     -0.399154
  C      -2.097866     -3.130163     -1.112079
  C      -3.489009     -3.066065     -1.184178
  C      -4.177710     -2.037749     -0.539313
  C      -3.479312     -1.071741      0.182183
  C      -1.915045      1.686563      0.583517
  C      -2.494968      1.776222     -0.837360
  C      -1.690894      3.086729     -1.025656
  C      -0.919414      2.822692      0.288589
  C       1.310640     -0.344273      1.974319
  O       0.732421     -0.512923      3.163954
  C       1.544429     -0.814323      4.286924
  C       2.678060     -0.453238      1.753178
  H       6.205794     -0.303660     -0.751886
  H       4.951660      0.869346     -1.267044
  H       4.765844     -0.877651     -1.651701
  H       2.765618      0.225851     -1.615419
  H      -0.345382      0.956507     -3.258191
  H       1.059021     -0.150149     -3.101741
  H       1.227158      1.592409     -2.672213
  H      -0.294472     -2.225995     -0.333842
  H      -1.558829     -3.935807     -1.612224
  H      -4.040122     -3.823822     -1.742916
  H      -5.266064     -1.986394     -0.590411
  H      -4.019464     -0.272648      0.695519
  H      -2.640429      1.952767      1.362874
  H      -2.170756      0.963943     -1.496769
  H      -3.588390      1.857789     -0.870354
  H      -1.072794      3.131444     -1.931025
  H      -2.320919      3.983276     -0.978998
  H      -0.916651      3.624433      1.036314
  H       0.111216      2.484706      0.127894
  H       2.286385     -0.020843      4.457436
  H       0.867815     -0.876737      5.144497
  H       2.056498     -1.777446      4.147023
  H       3.377084     -0.691621      2.551504
46
Coordinates from ORCA-job file E -1360.233065062265
  C       5.133008     -0.144691     -0.906122
  O       4.515239     -0.356862      0.351259
  C       3.191185     -0.243453      0.463442
  C       2.356271      0.062419     -0.622237
  C       0.981830      0.156508     -0.402618
  O       0.095478      0.438723     -1.359117
  C       0.547207      0.709907     -2.676606
  C       0.449024     -0.041006      0.887932
  S      -1.256640      0.077623      1.245701
  C      -2.088243     -1.148319      0.232633
  C      -1.384418     -2.161458     -0.411790
  C      -2.102898     -3.121818     -1.125405
  C      -3.494981     -3.063742     -1.185253
  C      -4.182937     -2.044048     -0.525312
  C      -3.482476     -1.081140      0.198137
  C      -1.915656      1.685743      0.580588
  C      -2.483213      1.779134     -0.845250
  C      -1.676000      3.088852     -1.024752
  C      -0.917774      2.822721      0.296905
  C       1.309014     -0.344693      1.974379
  O       0.730890     -0.512199      3.164257
  C       1.543017     -0.812458      4.287472
  C       2.676834     -0.451344      1.753922
  H       6.205877     -0.290111     -0.748542
  H       4.948513      0.878738     -1.264982
  H       4.768461     -0.868928     -1.649348
  H       2.764369      0.223879     -1.615658
  H      -0.349334      0.939480     -3.261921
  H       1.054937     -0.166982     -3.102834
  H       1.223916      1.577139     -2.680483
  H      -0.296017     -2.213273     -0.359097
  H      -1.564324     -3.921106     -1.636297
  H      -4.047424     -3.820262     -1.744336
  H      -5.272004     -1.998177     -0.565320
  H      -4.021510     -0.288935      0.723170
  H      -2.647668      1.948093      1.354975
  H      -2.155674      0.967828     -1.503698
  H      -3.576288      1.862842     -0.886158
  H      -1.048855      3.133203     -1.924084
  H      -2.304599      3.986677     -0.983808
  H      -0.924298      3.623364      1.045904
  H       0.115494      2.487173      0.147274
  H       2.284945     -0.018665      4.456406
  H       0.866372     -0.874332      5.145021
  H       2.054957     -1.775815      4.148727
  H       3.376193     -0.686331      2.552924
46
Coordinates from ORCA-job file E -1360.233064298543
  C       5.133922     -0.141662     -0.905028
  O       4.516015     -0.355253      0.352046
  C       3.191824     -0.243690      0.463758
  C       2.356867      0.060693     -0.622318
  C       0.982218      0.153113     -0.403181
  O       0.095976      0.435368     -1.359850
  C       0.548129      0.708746     -2.676728
  C       0.449421     -0.043311      0.887493
  S      -1.256219      0.076231      1.244994
  C      -2.089134     -1.149091      0.232194
  C      -1.386187     -2.162143     -0.413350
  C      -2.105475     -3.121420     -1.127494
  C      -3.497627     -3.062510     -1.186621
  C      -4.184689     -2.043197     -0.525215
  C      -3.483299     -1.081264      0.198695
  C      -1.914545      1.685068      0.580992
  C      -2.483798      1.778683     -0.844127
  C      -1.676113      3.088042     -1.024536
  C      -0.916275      2.821413      0.296167
  C       1.309389     -0.345772      1.974307
  O       0.731145     -0.513077      3.164133
  C       1.543412     -0.810621      4.287946
  C       2.677329     -0.451573      1.754215
  H       6.207006     -0.284944     -0.747010
  H       4.947456      0.881383     -1.263929
  H       4.771109     -0.866676     -1.648346
  H       2.765094      0.222404     -1.615634
  H      -0.348140      0.939530     -3.261950
  H       1.055719     -0.167502     -3.104447
  H       1.225075      1.575777     -2.678880
  H      -0.297720     -2.214323     -0.361106
  H      -1.567729     -3.920614     -1.639417
  H      -4.050702     -3.818307     -1.746049
  H      -5.273761     -1.996699     -0.564376
  H      -4.021525     -0.289346      0.724992
  H      -2.645619      1.947815      1.356129
  H      -2.157400      0.967084     -1.502873
  H      -3.576854      1.862939     -0.883773
  H      -1.050166      3.132507     -1.924671
  H      -2.304412      3.986043     -0.982516
  H      -0.920570      3.621902      1.045300
  H       0.116300      2.484660      0.144520
  H       2.283919     -0.015324      4.456047
  H       0.866682     -0.872414      5.145427
  H       2.057039     -1.773265      4.150572
  H       3.376713     -0.685503      2.553498
