24
Coordinates from ORCA-job file E -460.100571572134
  C       2.556200      0.277300     -0.418600
  C       1.470200      1.366800     -0.330200
  O       0.230800      0.883000     -0.810100
  C      -0.282000     -0.177700     -0.001500
  C      -1.233500      0.381400      1.046900
  C      -2.571100      0.500400      0.328200
  N      -2.520700     -0.324300     -0.883300
  C      -1.225800     -1.003400     -0.874900
  C       0.838900     -1.063000      0.623300
  N       1.994700     -1.075700     -0.274600
  H       3.056800      0.342300     -1.408200
  H       3.325000      0.464100      0.364700
  H       1.776600      2.239500     -0.944600
  H       1.370300      1.728800      0.717800
  H      -1.339900     -0.329400      1.897400
  H      -0.896900      1.364500      1.440800
  H      -2.766900      1.565600      0.067200
  H      -3.394800      0.145500      0.983900
  H      -2.546500      0.311600     -1.715700
  H      -1.379600     -2.022800     -0.457900
  H      -0.825600     -1.115600     -1.908000
  H       0.491400     -2.104200      0.799300
  H       1.144400     -0.658900      1.616400
  H       2.728300     -1.695800      0.141800
24
Coordinates from ORCA-job file E -460.108340115186
  C       2.574409      0.275628     -0.439860
  C       1.477835      1.347046     -0.320833
  O       0.238615      0.857581     -0.791740
  C      -0.280604     -0.203320      0.022852
  C      -1.250129      0.361099      1.069247
  C      -2.591386      0.516152      0.320819
  N      -2.498583     -0.293547     -0.912356
  C      -1.221361     -1.013083     -0.878649
  C       0.852292     -1.034113      0.645633
  N       1.990087     -1.064968     -0.271219
  H       3.047093      0.330066     -1.427636
  H       3.351264      0.485174      0.315882
  H       1.733018      2.215944     -0.933955
  H       1.382619      1.696383      0.720228
  H      -1.348567     -0.347612      1.901447
  H      -0.893944      1.313882      1.474757
  H      -2.778968      1.565563      0.067585
  H      -3.426180      0.171830      0.943644
  H      -2.502206      0.323208     -1.712552
  H      -1.371929     -2.017089     -0.457391
  H      -0.807606     -1.124430     -1.884230
  H       0.499290     -2.056457      0.814752
  H       1.127738     -0.619103      1.634002
  H       2.697506     -1.685833      0.099672
24
Coordinates from ORCA-job file E -460.109403824174
  C       2.566416      0.275808     -0.469109
  C       1.470333      1.342291     -0.309709
  O       0.224932      0.855778     -0.770264
  C      -0.283985     -0.214043      0.047026
  C      -1.267369      0.346445      1.082788
  C      -2.591826      0.522233      0.301971
  N      -2.462474     -0.260934     -0.946140
  C      -1.214545     -1.022796     -0.864355
  C       0.866769     -1.016278      0.669424
  N       1.977354     -1.057720     -0.274982
  H       3.002810      0.324840     -1.473032
  H       3.366869      0.493530      0.258741
  H       1.704422      2.225669     -0.909774
  H       1.388494      1.665488      0.739997
  H      -1.383566     -0.373340      1.902942
  H      -0.900205      1.284056      1.511900
  H      -2.774596      1.574997      0.063402
  H      -3.443706      0.166377      0.893478
  H      -2.420461      0.367469     -1.738910
  H      -1.401004     -2.010240     -0.418817
  H      -0.775383     -1.166051     -1.853977
  H       0.518864     -2.037355      0.857432
  H       1.145966     -0.582708      1.647933
  H       2.686191     -1.703515      0.052136
24
Coordinates from ORCA-job file E -460.109865555497
  C       2.557645      0.275660     -0.491517
  C       1.465646      1.341691     -0.303075
  O       0.213569      0.859286     -0.750889
  C      -0.286654     -0.218102      0.066355
  C      -1.281734      0.338082      1.092133
  C      -2.593251      0.520391      0.286131
  N      -2.430695     -0.231431     -0.977855
  C      -1.209205     -1.028043     -0.850924
  C       0.875059     -1.006816      0.686957
  N       1.967718     -1.052545     -0.276100
  H       2.959974      0.319776     -1.510045
  H       3.380842      0.497176      0.209668
  H       1.689070      2.234550     -0.893502
  H       1.398857      1.648519      0.752615
  H      -1.414363     -0.389486      1.903100
  H      -0.915099      1.268855      1.537117
  H      -2.783304      1.575948      0.066967
  H      -3.454768      0.141133      0.848556
  H      -2.326319      0.415868     -1.749295
  H      -1.436279     -1.995938     -0.381442
  H      -0.749053     -1.210603     -1.824530
  H       0.534630     -2.027220      0.893023
  H       1.162760     -0.559089      1.656456
  H       2.675253     -1.717664      0.010195
24
Coordinates from ORCA-job file E -460.110089541549
  C       2.554005      0.271099     -0.504741
  C       1.468631      1.340889     -0.302157
  O       0.210910      0.864623     -0.740269
  C      -0.287927     -0.215375      0.076363
  C      -1.290399      0.340888      1.094851
  C      -2.601666      0.504949      0.279830
  N      -2.409278     -0.206257     -1.003467
  C      -1.206215     -1.024941     -0.845774
  C       0.875887     -1.000784      0.696772
  N       1.961193     -1.052086     -0.273526
  H       2.935482      0.309656     -1.531626
  H       3.391634      0.492982      0.179084
  H       1.690449      2.235941     -0.889979
  H       1.412724      1.643130      0.755494
  H      -1.423552     -0.382438      1.909383
  H      -0.931852      1.276829      1.535640
  H      -2.825568      1.558386      0.086094
  H      -3.455512      0.082046      0.822530
  H      -2.243177      0.468985     -1.740863
  H      -1.464343     -1.977436     -0.361050
  H      -0.734446     -1.236773     -1.807767
  H       0.537368     -2.019613      0.913428
  H       1.170174     -0.545608      1.660653
  H       2.665781     -1.729093     -0.008803
24
Coordinates from ORCA-job file E -460.110234731220
  C       2.553802      0.263394     -0.511353
  C       1.475805      1.339537     -0.305130
  O       0.213526      0.869999     -0.736794
  C      -0.288789     -0.209332      0.079463
  C      -1.294979      0.349688      1.093448
  C      -2.612818      0.483620      0.279864
  N      -2.397068     -0.185174     -1.022369
  C      -1.204692     -1.016943     -0.847726
  C       0.872426     -0.996177      0.702404
  N       1.956311     -1.055178     -0.268750
  H       2.925228      0.295700     -1.542290
  H       3.399302      0.484112      0.163111
  H       1.700788      2.232332     -0.895321
  H       1.426716      1.644120      0.752198
  H      -1.417470     -0.361622      1.920125
  H      -0.946686      1.297314      1.517140
  H      -2.884830      1.530244      0.113823
  H      -3.446934      0.007924      0.809360
  H      -2.179009      0.519474     -1.718647
  H      -1.483198     -1.960698     -0.357323
  H      -0.726123     -1.244170     -1.802897
  H       0.531259     -2.012792      0.925386
  H       1.170582     -0.537024      1.663174
  H       2.657150     -1.738350     -0.010795
24
Coordinates from ORCA-job file E -460.110325820210
  C       2.557095      0.252522     -0.512148
  C       1.487064      1.337005     -0.309560
  O       0.221388      0.875632     -0.739765
  C      -0.289145     -0.200068      0.076284
  C      -1.295761      0.365126      1.088207
  C      -2.626166      0.456950      0.286310
  N      -2.392054     -0.167088     -1.033756
  C      -1.204027     -1.004578     -0.855821
  C       0.865705     -0.992066      0.704108
  N       1.952117     -1.061663     -0.263630
  H       2.927989      0.278781     -1.543517
  H       3.404823      0.469951      0.160550
  H       1.719299      2.225469     -0.903530
  H       1.440289      1.646559      0.746452
  H      -1.397631     -0.325338      1.934996
  H      -0.958227      1.329263      1.482170
  H      -2.956522      1.490863      0.149929
  H      -3.429242     -0.077253      0.808045
  H      -2.144860      0.563374     -1.693845
  H      -1.491519     -1.946708     -0.367499
  H      -0.722429     -1.233598     -1.809044
  H       0.517633     -2.005639      0.930315
  H       1.165380     -0.531361      1.663690
  H       2.649100     -1.746135      0.001160
24
Coordinates from ORCA-job file E -460.110382292961
  C       2.562110      0.239706     -0.509665
  C       1.500804      1.333649     -0.313118
  O       0.232158      0.882194     -0.745007
  C      -0.289033     -0.189421      0.069624
  C      -1.294680      0.383099      1.080955
  C      -2.638639      0.430207      0.296653
  N      -2.394920     -0.155907     -1.037503
  C      -1.202315     -0.989482     -0.868839
  C       0.857245     -0.987950      0.704041
  N       1.948005     -1.070364     -0.258234
  H       2.936647      0.260097     -1.539853
  H       3.409498      0.452449      0.164817
  H       1.742548      2.217407     -0.910302
  H       1.454144      1.647969      0.741496
  H      -1.371408     -0.280669      1.951366
  H      -0.968099      1.365351      1.437421
  H      -3.027339      1.447206      0.189430
  H      -3.403956     -0.159767      0.815090
  H      -2.143057      0.595194     -1.673030
  H      -1.487375     -1.936895     -0.389501
  H      -0.719535     -1.207366     -1.824020
  H       0.499645     -1.997745      0.932344
  H       1.156722     -0.526463      1.663324
  H       2.641131     -1.752497      0.022611
24
Coordinates from ORCA-job file E -460.110393954125
  C       2.564827      0.235516     -0.506793
  C       1.505507      1.332156     -0.314028
  O       0.236855      0.883198     -0.748537
  C      -0.288679     -0.186109      0.066380
  C      -1.293084      0.390505      1.077826
  C      -2.642138      0.420899      0.301578
  N      -2.396205     -0.152175     -1.036768
  C      -1.202510     -0.983888     -0.873484
  C       0.854557     -0.987427      0.702924
  N       1.947018     -1.073564     -0.257350
  H       2.942977      0.254541     -1.535612
  H       3.410246      0.446363      0.170666
  H       1.750419      2.214687     -0.911659
  H       1.457041      1.647509      0.740161
  H      -1.359908     -0.261152      1.958052
  H      -0.969706      1.379470      1.418250
  H      -3.050092      1.431211      0.204302
  H      -3.393360     -0.187137      0.819997
  H      -2.153675      0.602629     -1.671298
  H      -1.484351     -1.934299     -0.398022
  H      -0.720402     -1.195829     -1.830228
  H       0.493194     -1.996051      0.930578
  H       1.152927     -0.526748      1.662873
  H       2.638841     -1.754305      0.030291
24
Coordinates from ORCA-job file E -460.110393823478
  C       2.565559      0.234609     -0.506200
  C       1.506824      1.331777     -0.313190
  O       0.238117      0.883886     -0.748775
  C      -0.288509     -0.185524      0.065527
  C      -1.292844      0.391343      1.077085
  C      -2.642404      0.420726      0.302664
  N      -2.399491     -0.155605     -1.035029
  C      -1.201677     -0.982767     -0.875430
  C       0.854118     -0.986897      0.702957
  N       1.946846     -1.074151     -0.256898
  H       2.943789      0.253403     -1.534971
  H       3.410947      0.445018      0.171400
  H       1.752474      2.214654     -0.909980
  H       1.457900      1.646220      0.741230
  H      -1.357862     -0.258257      1.959010
  H      -0.969831      1.381505      1.414287
  H      -3.051310      1.430747      0.205565
  H      -3.391867     -0.187813      0.822913
  H      -2.163021      0.598826     -1.672317
  H      -1.479761     -1.935367     -0.402348
  H      -0.719648     -1.190336     -1.833145
  H       0.491957     -1.995138      0.931016
  H       1.151920     -0.525821      1.662875
  H       2.638073     -1.755037      0.031853
