24
Coordinates from ORCA-job file
  C   2.56555898881216      0.23460881106600     -0.50620026450111
  C   1.50682420088537      1.33177694634035     -0.31318957452096
  O   0.23811697347682      0.88388626938444     -0.74877531189653
  C   -0.28850858539884     -0.18552427501241      0.06552741483774
  C   -1.29284407518041      0.39134267292159      1.07708499047183
  C   -2.64240431802268      0.42072617105285      0.30266430527614
  N   -2.39949051143662     -0.15560499090943     -1.03502897690469
  C   -1.20167698934062     -0.98276698178731     -0.87542953087955
  C   0.85411808643224     -0.98689717836694      0.70295740479050
  N   1.94684563773468     -1.07415118208378     -0.25689821256455
  H   2.94378906378671      0.25340305654448     -1.53497090145690
  H   3.41094697786595      0.44501752665295      0.17140034145456
  H   1.75247425637803      2.21465400157018     -0.90998035780127
  H   1.45790006503491      1.64621999786204      0.74122988981864
  H   -1.35786169701511     -0.25825727937585      1.95901048433794
  H   -0.96983140538814      1.38150474958215      1.41428723771620
  H   -3.05130996562732      1.43074711459012      0.20556466425062
  H   -3.39186657029734     -0.18781263177401      0.82291282906969
  H   -2.16302066222795      0.59882610647532     -1.67231730341242
  H   -1.47976125495505     -1.93536708043704     -0.40234809470406
  H   -0.71964759711186     -1.19033560836599     -1.83314482180719
  H   0.49195696835707     -1.99513792237760      0.93101562789073
  H   1.15191976903006     -0.52582148082439      1.66287545729713
  H   2.63807264420796     -1.75503681272774      0.03185270323750
