8
Coordinates from ORCA-job file
  C   0.00846483331375      0.06232560578310      1.17446763392857
  C   -1.01087650965824      0.02337280222530      0.04417243438890
  O   -0.00751891274086     -0.05967379479706     -1.03050439663771
  C   1.01141220802285     -0.01990325395159      0.03194480092171
  H   -1.64821452733381      0.92365963275199     -0.09375814445012
  H   -1.69039524883349     -0.85525200706638      0.00381028079519
  H   1.68501067902379      0.85230509104225     -0.11382066380895
  H   1.65211747820600     -0.92683407598761     -0.01631194513760
