8
Coordinates from ORCA-job file E -191.734453742029
  C       0.008100      0.060700      1.115600
  C      -0.988300      0.020700      0.003000
  O      -0.007800     -0.060000     -1.064700
  C       0.988200     -0.021500     -0.009000
  H      -1.615800      0.922800     -0.050000
  H      -1.655500     -0.852700      0.047200
  H       1.653200      0.852800     -0.069700
  H       1.617900     -0.922800      0.027600
8
Coordinates from ORCA-job file E -191.737738506968
  C       0.008307      0.062122      1.146663
  C      -1.001682      0.022017      0.021364
  O      -0.007664     -0.059223     -1.047184
  C       1.001857     -0.020783      0.009206
  H      -1.637254      0.928798     -0.071524
  H      -1.677466     -0.859910      0.026419
  H       1.674646      0.857876     -0.091483
  H       1.639256     -0.930898      0.006539
8
Coordinates from ORCA-job file E -191.738664193494
  C       0.008474      0.063175      1.172995
  C      -1.010619      0.023198      0.039067
  O      -0.007517     -0.058653     -1.031061
  C       1.011063     -0.020017      0.026817
  H      -1.648234      0.926063     -0.090795
  H      -1.688776     -0.858492      0.006958
  H       1.685239      0.854685     -0.110886
  H       1.650370     -0.929958     -0.013095
8
Coordinates from ORCA-job file E -191.738696530566
  C       0.008492      0.063150      1.176492
  C      -1.011474      0.023401      0.042607
  O      -0.007491     -0.058756     -1.028843
  C       1.011976     -0.019865      0.030358
  H      -1.648802      0.924200     -0.093900
  H      -1.689604     -0.856709      0.003681
  H       1.685664      0.852807     -0.113995
  H       1.651239     -0.928228     -0.016401
8
Coordinates from ORCA-job file E -191.738702277780
  C       0.008486      0.062936      1.176237
  C      -1.011334      0.023430      0.043583
  O      -0.007492     -0.058996     -1.029088
  C       1.011855     -0.019842      0.031343
  H      -1.648613      0.923596     -0.094239
  H      -1.689758     -0.855902      0.003294
  H       1.685427      0.852218     -0.114326
  H       1.651429     -0.927441     -0.016803
8
Coordinates from ORCA-job file E -191.738705520729
  C       0.008472      0.062557      1.175033
  C      -1.010995      0.023410      0.044180
  O      -0.007507     -0.059414     -1.030042
  C       1.011529     -0.019863      0.031951
  H      -1.648342      0.923430     -0.094001
  H      -1.690101     -0.855311      0.003533
  H       1.685132      0.852069     -0.114072
  H       1.651812     -0.926878     -0.016581
8
Coordinates from ORCA-job file E -191.738705914620
  C       0.008465      0.062326      1.174468
  C      -1.010877      0.023373      0.044172
  O      -0.007519     -0.059674     -1.030504
  C       1.011412     -0.019903      0.031945
  H      -1.648215      0.923660     -0.093758
  H      -1.690395     -0.855252      0.003810
  H       1.685011      0.852305     -0.113821
  H       1.652117     -0.926834     -0.016312
