10
Coordinates from ORCA-job file
  C   -0.00726215272304     -1.11329594535973     -0.57035613408297
  C   1.10891607840057     -0.25298461323874     -0.23029186481838
  C   0.00449786860160      0.70685831415171      0.36038713453571
  C   -1.11254064579974     -0.32363858997912     -0.06404290568387
  H   1.69187150217174      0.08076452116907     -1.10302714636006
  H   1.83148708503146     -0.71849054239822      0.45835718163294
  H   0.08131391604969      0.82957851648159      1.43922967882186
  H   -0.06543496659741      1.65276560673553     -0.17365571313250
  H   -1.83882192083911     -0.03166074535327     -0.83882302820096
  H   -1.69412676429577     -0.82999652220883      0.72232279728823
