10
Coordinates from ORCA-job file E -155.501468182229
  C      -0.008100     -1.266300     -0.647000
  C       1.046700     -0.259000     -0.227600
  C       0.004700      0.724200      0.369500
  C      -1.050500     -0.325600     -0.070700
  H       1.636800      0.084700     -1.088300
  H       1.777100     -0.707300      0.460000
  H       0.079800      0.893200      1.446200
  H      -0.063100      1.695700     -0.125400
  H      -1.782700     -0.024200     -0.832500
  H      -1.640800     -0.815500      0.715900
10
Coordinates from ORCA-job file E -155.517964693112
  C      -0.007531     -1.174044     -0.599837
  C       1.094804     -0.249164     -0.226958
  C       0.004499      0.695269      0.354755
  C      -1.098481     -0.318815     -0.062881
  H       1.682975      0.087660     -1.096910
  H       1.824124     -0.709085      0.460681
  H       0.079923      0.852885      1.430831
  H      -0.063726      1.659634     -0.149024
  H      -1.829703     -0.024199     -0.834116
  H      -1.686985     -0.820243      0.723559
10
Coordinates from ORCA-job file E -155.520587826785
  C      -0.007169     -1.118297     -0.571428
  C       1.109442     -0.248072     -0.227772
  C       0.004440      0.692389      0.353272
  C      -1.113061     -0.318701     -0.061469
  H       1.693012      0.081689     -1.102006
  H       1.834184     -0.715995      0.457415
  H       0.080469      0.835654      1.431103
  H      -0.064499      1.649755     -0.163172
  H      -1.839916     -0.030767     -0.837653
  H      -1.697003     -0.827757      0.721810
10
Coordinates from ORCA-job file E -155.520798216501
  C      -0.007165     -1.113125     -0.568975
  C       1.109265     -0.250129     -0.228810
  C       0.004473      0.699964      0.357099
  C      -1.112883     -0.320772     -0.062531
  H       1.692044      0.078794     -1.103647
  H       1.833050     -0.719227      0.456283
  H       0.080802      0.835659      1.435389
  H      -0.064826      1.653233     -0.165787
  H      -1.838994     -0.033604     -0.839425
  H      -1.695866     -0.830892      0.720505
10
Coordinates from ORCA-job file E -155.520882492139
  C      -0.007191     -1.112387     -0.568913
  C       1.108581     -0.252526     -0.229987
  C       0.004508      0.707453      0.360864
  C      -1.112201     -0.323152     -0.063807
  H       1.691104      0.078029     -1.104370
  H       1.831814     -0.720543      0.456419
  H       0.081179      0.833924      1.439464
  H      -0.065219      1.655517     -0.169738
  H      -1.838104     -0.034323     -0.840278
  H      -1.694570     -0.832092      0.720447
10
Coordinates from ORCA-job file E -155.520888416064
  C      -0.007207     -1.112954     -0.569423
  C       1.108728     -0.252864     -0.230185
  C       0.004508      0.707596      0.360899
  C      -1.112349     -0.323502     -0.063978
  H       1.691358      0.079205     -1.103884
  H       1.831832     -0.719593      0.457190
  H       0.081260      0.831876      1.439617
  H      -0.065330      1.654440     -0.171598
  H      -1.838354     -0.033172     -0.839753
  H      -1.694546     -0.831132      0.721216
10
Coordinates from ORCA-job file E -155.520890734467
  C      -0.007238     -1.113402     -0.570076
  C       1.108915     -0.253008     -0.230295
  C       0.004502      0.707002      0.360521
  C      -1.112538     -0.323661     -0.064052
  H       1.691723      0.080624     -1.103193
  H       1.831717     -0.718475      0.458153
  H       0.081318      0.829672      1.439358
  H      -0.065425      1.652934     -0.173461
  H      -1.838695     -0.031789     -0.839009
  H      -1.694378     -0.829997      0.722154
10
Coordinates from ORCA-job file E -155.520890802391
  C      -0.007262     -1.113296     -0.570356
  C       1.108916     -0.252985     -0.230292
  C       0.004498      0.706858      0.360387
  C      -1.112541     -0.323639     -0.064043
  H       1.691872      0.080765     -1.103027
  H       1.831487     -0.718491      0.458357
  H       0.081314      0.829579      1.439230
  H      -0.065435      1.652766     -0.173656
  H      -1.838822     -0.031661     -0.838823
  H      -1.694127     -0.829997      0.722323
