23
Coordinates from ORCA-job file
  C   -1.47867908783571     -0.93801952261679      0.91804861676572
  C   -0.12750592945552     -0.28997548665626      1.26252831548011
  C   0.53705886715864      0.30128315645771      0.01391312574003
  C   -0.43653902646936      1.24565051244269     -0.68568772025911
  C   -1.76485620919138      0.53505326770759     -0.98268427370510
  N   -2.39398749948919     -0.04988169473530      0.20322462505067
  C   1.22159109623441     -0.77635287904221     -0.87231868725669
  C   2.55032837041680     -0.32165880396709     -0.23172749837229
  N   1.87435226988917      0.89928806685066      0.26594615124680
  H   -1.30935784321603     -1.81827252556078      0.28219316700297
  H   -1.97599146285868     -1.29668841458920      1.82618284833251
  H   0.53926704874585     -1.02652270411819      1.73267496186623
  H   -0.28759734442189      0.51937877352157      1.99150462975057
  H   0.02427747061429      1.62459285008775     -1.60599916103616
  H   -0.61607090125117      2.11313486031810     -0.03343160837204
  H   -2.47736022393267      1.22238913172849     -1.45213397265411
  H   -1.59210188195413     -0.27995205655930     -1.70030147378041
  H   -2.70406356966713      0.69263899873373      0.82412437777283
  H   0.92246058952954     -1.81477095664165     -0.70475789811683
  H   1.15766219204677     -0.54863808173828     -1.94059680576350
  H   3.38779847124757     -0.12085458908467     -0.90849692236242
  H   2.89093351989743     -1.00375165507915      0.55980853691037
  H   2.05848108396237      1.13172975254059      1.23798666575984
