23
Coordinates from ORCA-job file E -384.862119179038
  C      -1.558100     -0.929900      0.901600
  C      -0.205400     -0.338000      1.323300
  C       0.542400      0.229800      0.094400
  C      -0.354000      1.192300     -0.707300
  C      -1.701100      0.530100     -1.032900
  N      -2.377700      0.058300      0.184600
  C       1.223300     -0.837000     -0.764100
  C       2.508400     -0.128100     -0.380600
  N       1.818600      0.871600      0.438600
  H      -1.400700     -1.826000      0.261700
  H      -2.105100     -1.264500      1.809200
  H       0.401600     -1.120500      1.829200
  H      -0.381500      0.479700      2.056300
  H       0.146400      1.505000     -1.650000
  H      -0.537000      2.108900     -0.104800
  H      -2.352500      1.269800     -1.546000
  H      -1.550600     -0.319500     -1.734700
  H      -2.555900      0.876000      0.814700
  H       1.169400     -1.867200     -0.349200
  H       1.007100     -0.765800     -1.852500
  H       3.006500      0.349500     -1.252500
  H       3.192200     -0.772400      0.218400
  H       2.063800      0.697700      1.442600
23
Coordinates from ORCA-job file E -384.871875100036
  C      -1.575673     -0.911853      0.903665
  C      -0.217648     -0.321527      1.318002
  C       0.534109      0.233537      0.105996
  C      -0.363343      1.189910     -0.683809
  C      -1.713128      0.534555     -1.015615
  N      -2.410299      0.041900      0.174286
  C       1.237139     -0.838340     -0.768229
  C       2.561258     -0.139744     -0.391878
  N       1.842729      0.863281      0.441902
  H      -1.416959     -1.789692      0.261634
  H      -2.124888     -1.255179      1.788297
  H       0.392769     -1.088797      1.816689
  H      -0.383015      0.492419      2.040948
  H       0.150629      1.501574     -1.602618
  H      -0.530767      2.094774     -0.082261
  H      -2.365091      1.248803     -1.532071
  H      -1.561835     -0.313720     -1.698185
  H      -2.612334      0.830287      0.782618
  H       1.153631     -1.860026     -0.386210
  H       0.994953     -0.795205     -1.833891
  H       3.081539      0.325622     -1.235324
  H       3.259427     -0.766049      0.174268
  H       2.066898      0.723268      1.421787
23
Coordinates from ORCA-job file E -384.872818367195
  C      -1.559005     -0.914239      0.907020
  C      -0.207760     -0.305352      1.314393
  C       0.534235      0.250266      0.098656
  C      -0.374984      1.207265     -0.671870
  C      -1.714775      0.538518     -1.011977
  N      -2.413394      0.010311      0.162501
  C       1.228717     -0.827707     -0.781102
  C       2.569380     -0.175655     -0.378415
  N       1.858193      0.865548      0.416363
  H      -1.387796     -1.792135      0.268217
  H      -2.104693     -1.266245      1.789314
  H       0.413132     -1.059530      1.818513
  H      -0.377241      0.513165      2.030513
  H       0.138508      1.541026     -1.582155
  H      -0.546488      2.100568     -0.054877
  H      -2.378270      1.240644     -1.528344
  H      -1.547942     -0.303206     -1.699096
  H      -2.665921      0.786485      0.769754
  H       1.098995     -1.854418     -0.426810
  H       0.983961     -0.783414     -1.846542
  H       3.140081      0.257911     -1.205709
  H       3.239587     -0.818039      0.205495
  H       2.073581      0.788033      1.406157
23
Coordinates from ORCA-job file E -384.873226542363
  C      -1.541929     -0.918591      0.909654
  C      -0.194273     -0.296587      1.308897
  C       0.535429      0.262125      0.086389
  C      -0.385686      1.220398     -0.667530
  C      -1.719460      0.540930     -1.008394
  N      -2.409493     -0.010553      0.160347
  C       1.221664     -0.819319     -0.796131
  C       2.570601     -0.207571     -0.358715
  N       1.865388      0.870334      0.388365
  H      -1.362606     -1.798522      0.275679
  H      -2.082253     -1.272863      1.794436
  H       0.435974     -1.042987      1.813196
  H      -0.367016      0.523771      2.022269
  H       0.121373      1.571202     -1.574986
  H      -0.561936      2.103820     -0.037368
  H      -2.394068      1.237997     -1.517396
  H      -1.542333     -0.291493     -1.704490
  H      -2.700728      0.751880      0.766494
  H       1.055100     -1.849768     -0.467669
  H       0.995768     -0.754539     -1.865200
  H       3.191931      0.188453     -1.168800
  H       3.193312     -0.866828      0.259253
  H       2.075341      0.858511      1.381700
23
Coordinates from ORCA-job file E -384.873571146070
  C      -1.527087     -0.923042      0.911901
  C      -0.180332     -0.292491      1.300919
  C       0.536635      0.270689      0.071971
  C      -0.395827      1.229167     -0.667452
  C      -1.727124      0.542877     -1.003865
  N      -2.405393     -0.025317      0.163361
  C       1.218754     -0.812299     -0.811507
  C       2.570188     -0.235033     -0.335909
  N       1.868565      0.875173      0.360474
  H      -1.344992     -1.805061      0.281625
  H      -2.060477     -1.276866      1.801167
  H       0.458456     -1.034227      1.801541
  H      -0.353147      0.527844      2.014452
  H       0.102356      1.592226     -1.574946
  H      -0.574085      2.104984     -0.026930
  H      -2.411461      1.238658     -1.501811
  H      -1.546417     -0.280632     -1.709708
  H      -2.723267      0.725670      0.770090
  H       1.020657     -1.845518     -0.509811
  H       1.020944     -0.720552     -1.884112
  H       3.240751      0.121452     -1.125465
  H       3.138290     -0.906677      0.320504
  H       2.074112      0.928774      1.353512
23
Coordinates from ORCA-job file E -384.873880799167
  C      -1.512320     -0.928015      0.913363
  C      -0.165682     -0.290019      1.291225
  C       0.537509      0.280198      0.056390
  C      -0.406824      1.236365     -0.670149
  C      -1.736477      0.542840     -0.998824
  N      -2.401119     -0.036468      0.170432
  C       1.217008     -0.803574     -0.827790
  C       2.567148     -0.261731     -0.308746
  N       1.870780      0.881578      0.332927
  H      -1.330625     -1.811071      0.284449
  H      -2.037014     -1.281786      1.807889
  H       0.481689     -1.028742      1.785273
  H      -0.337379      0.528194      2.007560
  H       0.081317      1.607723     -1.579632
  H      -0.586892      2.107249     -0.023050
  H      -2.429719      1.237653     -1.485821
  H      -1.555671     -0.274145     -1.712290
  H      -2.731178      0.706847      0.779657
  H       0.989146     -1.838727     -0.556377
  H       1.052350     -0.679351     -1.902623
  H       3.286295      0.052291     -1.073215
  H       3.075840     -0.941637      0.387468
  H       2.071916      0.994128      1.321885
23
Coordinates from ORCA-job file E -384.874157753639
  C      -1.500496     -0.932329      0.915375
  C      -0.151600     -0.291157      1.280481
  C       0.537838      0.286612      0.040598
  C      -0.417171      1.239395     -0.675763
  C      -1.747340      0.541281     -0.993222
  N      -2.398018     -0.042312      0.181431
  C       1.219209     -0.795221     -0.844613
  C       2.563353     -0.283610     -0.281340
  N       1.870869      0.886855      0.307567
  H      -1.324178     -1.816307      0.286413
  H      -2.015361     -1.284388      1.816307
  H       0.503037     -1.029144      1.765783
  H      -0.318960      0.524061      2.001297
  H       0.060278      1.614753     -1.589181
  H      -0.597329      2.107939     -0.025303
  H      -2.447609      1.236612     -1.469432
  H      -1.571493     -0.272000     -1.712146
  H      -2.727734      0.697944      0.794486
  H       0.965033     -1.832499     -0.607718
  H       1.093000     -0.632366     -1.919071
  H       3.329066     -0.011248     -1.016307
  H       3.008916     -0.966812      0.454015
  H       2.066789      1.053742      1.290342
23
Coordinates from ORCA-job file E -384.874333862760
  C      -1.483339     -0.936615      0.916341
  C      -0.135318     -0.286704      1.269236
  C       0.538211      0.300264      0.023711
  C      -0.430471      1.247870     -0.679020
  C      -1.756686      0.538147     -0.987153
  N      -2.393964     -0.052576      0.191349
  C       1.216956     -0.781527     -0.862684
  C       2.554009     -0.312966     -0.247765
  N       1.875948      0.895948      0.279704
  H      -1.307461     -1.818832      0.284818
  H      -1.988026     -1.293523      1.821091
  H       0.528931     -1.021479      1.746224
  H      -0.301248      0.525154      1.994152
  H       0.037264      1.629234     -1.594799
  H      -0.612797      2.113688     -0.025307
  H      -2.466491      1.226527     -1.459059
  H      -1.578040     -0.273796     -1.706924
  H      -2.721988      0.685055      0.808436
  H       0.931324     -1.818283     -0.665540
  H       1.124533     -0.586264     -1.935655
  H       3.365360     -0.087569     -0.947636
  H       2.936796     -0.998399      0.521748
  H       2.066599      1.106445      1.254732
23
Coordinates from ORCA-job file E -384.874397594547
  C      -1.475417     -0.939642      0.918929
  C      -0.122767     -0.291890      1.258825
  C       0.537261      0.302198      0.008960
  C      -0.439010      1.245660     -0.687750
  C      -1.768076      0.534803     -0.980991
  N      -2.392455     -0.051424      0.206565
  C       1.223204     -0.774383     -0.877679
  C       2.548152     -0.327186     -0.223350
  N       1.873812      0.899587      0.257847
  H      -1.309308     -1.821397      0.284377
  H      -1.969786     -1.295401      1.829818
  H       0.546113     -1.029095      1.724924
  H      -0.280177      0.515957      1.990044
  H       0.018339      1.625153     -1.609569
  H      -0.618250      2.112666     -0.034719
  H      -2.482315      1.224040     -1.445069
  H      -1.598704     -0.278160     -1.701718
  H      -2.703285      0.689878      0.828432
  H       0.917831     -1.812629     -0.720768
  H       1.173348     -0.533726     -1.943642
  H       3.398632     -0.139793     -0.887820
  H       2.865122     -1.007696      0.579255
  H       2.057837      1.152281      1.225099
23
Coordinates from ORCA-job file E -384.874413857050
  C      -1.479004     -0.938113      0.917959
  C      -0.127872     -0.290134      1.262848
  C       0.537097      0.300982      0.014358
  C      -0.436092      1.245615     -0.685384
  C      -1.764528      0.535475     -0.982992
  N      -2.393891     -0.050214      0.202359
  C       1.221565     -0.777014     -0.871678
  C       2.550752     -0.321072     -0.232699
  N       1.874271      0.898788      0.266357
  H      -1.309593     -1.818929      0.282886
  H      -1.976780     -1.295898      1.826189
  H       0.538612     -1.026823      1.733150
  H      -0.288086      0.519199      1.991800
  H       0.025000      1.624683     -1.605521
  H      -0.615708      2.112941     -0.032940
  H      -2.476794      1.223662     -1.451566
  H      -1.592113     -0.278752     -1.701565
  H      -2.705886      0.691649      0.823024
  H       0.923358     -1.815347     -0.702023
  H       1.156592     -0.550515     -1.940173
  H       3.387016     -0.119051     -0.910589
  H       2.892975     -1.003186      0.558094
  H       2.059209      1.131854      1.238103
23
Coordinates from ORCA-job file E -384.874415344794
  C      -1.478679     -0.938020      0.918049
  C      -0.127506     -0.289975      1.262528
  C       0.537059      0.301283      0.013913
  C      -0.436539      1.245651     -0.685688
  C      -1.764856      0.535053     -0.982684
  N      -2.393987     -0.049882      0.203225
  C       1.221591     -0.776353     -0.872319
  C       2.550328     -0.321659     -0.231727
  N       1.874352      0.899288      0.265946
  H      -1.309358     -1.818273      0.282193
  H      -1.975991     -1.296688      1.826183
  H       0.539267     -1.026523      1.732675
  H      -0.287597      0.519379      1.991505
  H       0.024277      1.624593     -1.605999
  H      -0.616071      2.113135     -0.033432
  H      -2.477360      1.222389     -1.452134
  H      -1.592102     -0.279952     -1.700301
  H      -2.704064      0.692639      0.824124
  H       0.922461     -1.814771     -0.704758
  H       1.157662     -0.548638     -1.940597
  H       3.387798     -0.120855     -0.908497
  H       2.890934     -1.003752      0.559809
  H       2.058481      1.131730      1.237987
