17
Coordinates from ORCA-job file E -309.968293343328
  C       1.691500     -0.591600     -0.361600
  C       0.650200      0.222300     -1.140400
  C      -0.269300      0.094200      0.057600
  C       0.747500     -0.711100      0.841600
  C      -0.911700      1.310700      0.662100
  O      -2.205400      0.771300      0.471500
  C      -1.676700     -0.405500     -0.108700
  H       1.902700     -1.575300     -0.835300
  H       2.604500     -0.001000     -0.128300
  H       0.986400      1.264700     -1.331000
  H       0.281900     -0.315800     -2.040800
  H       0.432500     -1.760900      1.027600
  H       1.137000     -0.180400      1.737400
  H      -0.773900      2.235300      0.059800
  H      -0.691300      1.442100      1.744000
  H      -1.994400     -0.502900     -1.169900
  H      -1.911700     -1.296100      0.514300
17
Coordinates from ORCA-job file E -309.979082612559
  C       1.742604     -0.609568     -0.372625
  C       0.676378      0.213838     -1.147293
  C      -0.275855      0.096710      0.058969
  C       0.773664     -0.720741      0.837337
  C      -0.939258      1.334053      0.674503
  O      -2.258099      0.789253      0.483094
  C      -1.714675     -0.405983     -0.107148
  H       1.981911     -1.570517     -0.836789
  H       2.658499     -0.052753     -0.155510
  H       0.988021      1.240990     -1.364287
  H       0.307183     -0.285089     -2.049489
  H       0.459416     -1.746952      1.054890
  H       1.139920     -0.220642      1.740087
  H      -0.804595      2.262385      0.102906
  H      -0.724200      1.491241      1.740148
  H      -2.045751     -0.522515     -1.148043
  H      -1.965363     -1.293709      0.489151
17
Coordinates from ORCA-job file E -309.979915976784
  C       1.751596     -0.612648     -0.374589
  C       0.683925      0.209588     -1.145354
  C      -0.279432      0.097941      0.059736
  C       0.780894     -0.721654      0.832250
  C      -0.945626      1.338155      0.676765
  O      -2.268523      0.792792      0.485351
  C      -1.722513     -0.405203     -0.106348
  H       2.009669     -1.569513     -0.837600
  H       2.677957     -0.070112     -0.164811
  H       0.979740      1.236770     -1.384836
  H       0.309643     -0.264723     -2.059055
  H       0.463263     -1.741169      1.076358
  H       1.132941     -0.239369      1.750582
  H      -0.808021      2.272410      0.116113
  H      -0.728362      1.507574      1.739788
  H      -2.058462     -0.533009     -1.144064
  H      -1.978889     -1.297829      0.479615
17
Coordinates from ORCA-job file E -309.979918187232
  C       1.751701     -0.612644     -0.374591
  C       0.684131      0.209554     -1.145483
  C      -0.279637      0.097922      0.059718
  C       0.781083     -0.721737      0.832293
  C      -0.945946      1.338280      0.676822
  O      -2.269032      0.793006      0.485483
  C      -1.722986     -0.405099     -0.106268
  H       2.010642     -1.569380     -0.837563
  H       2.678636     -0.070781     -0.165208
  H       0.979541      1.236785     -1.386345
  H       0.310133     -0.263522     -2.060226
  H       0.463828     -1.741261      1.077907
  H       1.132824     -0.240603      1.751629
  H      -0.808119      2.272766      0.116474
  H      -0.728466      1.508068      1.739813
  H      -2.059068     -0.533373     -1.143953
  H      -1.979466     -1.297982      0.479398
