17
Coordinates from ORCA-job file
  C   1.75170135069347     -0.61264435789576     -0.37459140940929
  C   0.68413097342876      0.20955435513114     -1.14548292226239
  C   -0.27963655281249      0.09792208528929      0.05971751655339
  C   0.78108293369470     -0.72173669768817      0.83229326600982
  C   -0.94594625911134      1.33827992352083      0.67682174310903
  O   -2.26903247675488      0.79300613333184      0.48548313601528
  C   -1.72298602134663     -0.40509873730511     -0.10626794927191
  H   2.01064208279058     -1.56938002407863     -0.83756281661189
  H   2.67863627659493     -0.07078128812775     -0.16520784853193
  H   0.97954094446156      1.23678538231606     -1.38634501506388
  H   0.31013328500323     -0.26352191941036     -2.06022573601374
  H   0.46382822522936     -1.74126071151453      1.07790723672198
  H   1.13282436884591     -0.24060308707643      1.75162929826694
  H   -0.80811900669498      2.27276566503212      0.11647429629787
  H   -0.72846629721354      1.50806822136543      1.73981250823760
  H   -2.05906789444108     -0.53337322850653     -1.14395306972672
  H   -1.97946593236754     -1.29798171438343      0.47939776567984
