45
Coordinates from ORCA-job file E -1359.624897981001
  C       5.666100     -0.007800     -0.124900
  O       4.644200     -0.023100     -1.116500
  C       3.269500      0.044600     -0.842600
  C       2.765500      0.137400      0.466400
  C       1.378600      0.204000      0.696500
  O       0.848100      0.315300      1.991800
  C       1.622100      0.354700      3.185800
  C       0.496100      0.167800     -0.397300
  S      -1.244700      0.241500     -0.138600
  C      -1.949900     -1.276900      0.384900
  C      -2.662800     -2.060100     -0.531200
  C      -3.230100     -3.272100     -0.124900
  C      -3.089000     -3.702100      1.198100
  C      -2.382500     -2.919000      2.116200
  C      -1.814300     -1.706800      1.711700
  C      -1.798600      1.671000      0.783600
  C      -1.477700      2.967800      0.048400
  C      -2.961800      3.217000     -0.168100
  C      -3.286300      1.929200      0.572100
  C       0.990800      0.081700     -1.709000
  O       0.077200      0.057500     -2.776100
  C       0.440100     -0.029000     -4.150000
  C       2.380000      0.019600     -1.919400
  H       6.655100     -0.074200     -0.622700
  H       5.622600      0.939100      0.453800
  H       5.551500     -0.878100      0.555300
  H       3.449400      0.161800      1.301300
  H       0.939600      0.440200      4.055900
  H       2.296400      1.236900      3.175000
  H       2.213100     -0.579800      3.288600
  H      -2.775800     -1.733500     -1.557500
  H      -3.778800     -3.877400     -0.834800
  H      -3.528800     -4.639800      1.512200
  H      -2.277800     -3.249700      3.141400
  H      -1.281300     -1.103400      2.433500
  H      -0.923500      2.836300     -0.907400
  H      -1.019300      3.717200      0.728700
  H      -3.248000      3.174100     -1.241800
  H      -3.327100      4.122000      0.364700
  H      -3.806700      2.116900      1.535700
  H      -3.800700      1.183700     -0.074000
  H       0.995000     -0.972000     -4.339700
  H       1.060800      0.845900     -4.436800
  H      -0.480900     -0.028800     -4.768200
  H       2.784700     -0.049600     -2.920000
45
Coordinates from ORCA-job file E -1359.653989428238
  C       5.511433     -0.036283     -0.074744
  O       4.566222     -0.038131     -1.119333
  C       3.232059      0.034246     -0.854404
  C       2.732087      0.113068      0.450174
  C       1.350257      0.183393      0.658641
  O       0.817468      0.267588      1.903965
  C       1.633856      0.286005      3.050841
  C       0.468709      0.169421     -0.433632
  S      -1.277252      0.260076     -0.207965
  C      -1.939937     -1.261154      0.378932
  C      -2.652828     -2.069495     -0.507223
  C      -3.191614     -3.276948     -0.061763
  C      -3.019994     -3.671432      1.267063
  C      -2.311451     -2.856997      2.153915
  C      -1.771308     -1.649229      1.711977
  C      -1.802783      1.658057      0.768474
  C      -1.476208      2.973461      0.043717
  C      -2.982486      3.229105     -0.143464
  C      -3.307106      1.908207      0.577063
  C       0.982729      0.094051     -1.737044
  O       0.104489      0.089108     -2.775630
  C       0.561536      0.017206     -4.106491
  C       2.362698      0.026080     -1.943580
  H       6.510277     -0.103406     -0.527733
  H       5.445732      0.899076      0.509394
  H       5.360636     -0.906048      0.589505
  H       3.413199      0.120825      1.297240
  H       0.972956      0.353393      3.925819
  H       2.301117      1.165835      3.038526
  H       2.230309     -0.641598      3.120464
  H      -2.784971     -1.759631     -1.542960
  H      -3.746413     -3.910182     -0.751375
  H      -3.441827     -4.613710      1.613143
  H      -2.183402     -3.162545      3.190828
  H      -1.231135     -1.006053      2.404835
  H      -0.934105      2.870838     -0.917992
  H      -0.994642      3.704494      0.717890
  H      -3.284188      3.217097     -1.203076
  H      -3.342586      4.119935      0.397956
  H      -3.822853      2.058644      1.542017
  H      -3.837114      1.181686     -0.071629
  H       1.122839     -0.918968     -4.276119
  H       1.197491      0.887383     -4.347738
  H      -0.320141      0.027973     -4.761973
  H       2.778347     -0.034442     -2.946410
45
Coordinates from ORCA-job file E -1359.665462966639
  C       5.433490     -0.068467     -0.043469
  O       4.523121     -0.049352     -1.111104
  C       3.208380      0.025222     -0.853826
  C       2.691857      0.082340      0.445306
  C       1.305296      0.152832      0.624753
  O       0.744782      0.201263      1.833170
  C       1.552113      0.200701      2.979448
  C       0.438682      0.165766     -0.483646
  S      -1.314955      0.273752     -0.318138
  C      -1.923351     -1.244320      0.360088
  C      -2.626128     -2.100818     -0.483992
  C      -3.128311     -3.299644      0.020705
  C      -2.929264     -3.630950      1.361373
  C      -2.231340     -2.762407      2.203877
  C      -1.727532     -1.563035      1.705696
  C      -1.792939      1.624056      0.733848
  C      -1.458922      2.962884      0.038392
  C      -2.977070      3.240325     -0.107234
  C      -3.306796      1.883722      0.566919
  C       0.981381      0.109435     -1.781543
  O       0.123207      0.128790     -2.808939
  C       0.620966      0.084272     -4.120847
  C       2.363200      0.038788     -1.964745
  H       6.435210     -0.136620     -0.481250
  H       5.364932      0.854601      0.555106
  H       5.265452     -0.942767      0.606353
  H       3.355299      0.069560      1.304447
  H       0.874514      0.239022      3.839021
  H       2.207833      1.085945      3.000715
  H       2.161293     -0.716556      3.037165
  H      -2.774638     -1.829657     -1.530710
  H      -3.678211     -3.975921     -0.634712
  H      -3.324051     -4.569462      1.753898
  H      -2.084059     -3.020086      3.253589
  H      -1.196082     -0.864112      2.352990
  H      -0.934452      2.901712     -0.933968
  H      -0.943567      3.664582      0.713323
  H      -3.299797      3.279650     -1.155630
  H      -3.325030      4.115447      0.459325
  H      -3.817664      1.984381      1.536752
  H      -3.861815      1.192383     -0.095443
  H       1.186066     -0.844724     -4.300217
  H       1.262531      0.954670     -4.332945
  H      -0.247835      0.109526     -4.786965
  H       2.804302     -0.006726     -2.956834
45
Coordinates from ORCA-job file E -1359.671411902143
  C       5.418428     -0.060288     -0.051350
  O       4.509576     -0.037336     -1.119799
  C       3.196462      0.026758     -0.859476
  C       2.671829      0.067223      0.436273
  C       1.281516      0.125137      0.606410
  O       0.715828      0.151296      1.809284
  C       1.520150      0.161098      2.957506
  C       0.419191      0.146751     -0.510196
  S      -1.345942      0.264974     -0.407849
  C      -1.924433     -1.244947      0.345499
  C      -2.559431     -2.162464     -0.487682
  C      -3.051482     -3.349817      0.052940
  C      -2.911980     -3.605216      1.416049
  C      -2.289012     -2.670481      2.246589
  C      -1.795609     -1.481336      1.715278
  C      -1.778393      1.566240      0.714285
  C      -1.421205      2.928255      0.063773
  C      -2.937868      3.245669     -0.054007
  C      -3.292578      1.859427      0.552852
  C       0.978496      0.107962     -1.806760
  O       0.122082      0.137501     -2.833375
  C       0.626119      0.121215     -4.143551
  C       2.361162      0.046714     -1.979526
  H       6.417212     -0.122023     -0.494487
  H       5.349573      0.855827      0.556220
  H       5.256169     -0.937832      0.593999
  H       3.327743      0.050041      1.300570
  H       0.834768      0.179720      3.810809
  H       2.155494      1.059594      2.989383
  H       2.151523     -0.739821      3.014858
  H      -2.659798     -1.943538     -1.553074
  H      -3.548827     -4.075109     -0.593536
  H      -3.300071     -4.535198      1.836908
  H      -2.195329     -2.867172      3.316326
  H      -1.334964     -0.719752      2.343732
  H      -0.903679      2.909768     -0.913240
  H      -0.873083      3.592847      0.749151
  H      -3.269230      3.350142     -1.094435
  H      -3.271155      4.105027      0.542872
  H      -3.813387      1.910455      1.520383
  H      -3.871103      1.216060     -0.136095
  H       1.201730     -0.796386     -4.340862
  H       1.259812      0.999315     -4.341784
  H      -0.244365      0.149274     -4.805851
  H       2.818161      0.014425     -2.964915
45
Coordinates from ORCA-job file E -1359.674804160392
  C       5.410746     -0.054788     -0.069853
  O       4.502273     -0.008751     -1.138948
  C       3.185671      0.039147     -0.876773
  C       2.657564      0.037544      0.416621
  C       1.265030      0.077678      0.587549
  O       0.700334      0.045035      1.793370
  C       1.502933      0.029961      2.943649
  C       0.405201      0.129381     -0.529103
  S      -1.368686      0.248355     -0.463569
  C      -1.925323     -1.246332      0.359391
  C      -2.445399     -2.250460     -0.454489
  C      -2.924372     -3.422664      0.130125
  C      -2.888481     -3.572544      1.515030
  C      -2.386669     -2.547090      2.321227
  C      -1.906193     -1.372526      1.747308
  C      -1.781180      1.532677      0.684381
  C      -1.399898      2.905605      0.062506
  C      -2.908531      3.255125     -0.054210
  C      -3.290848      1.857227      0.504102
  C       0.971651      0.128952     -1.826300
  O       0.113965      0.181228     -2.856038
  C       0.621177      0.211571     -4.165810
  C       2.353379      0.083415     -1.999148
  H       6.409951     -0.101703     -0.514942
  H       5.338234      0.844774      0.562127
  H       5.251728     -0.948314      0.554596
  H       3.310782     -0.002127      1.282163
  H       0.814733      0.006817      3.795048
  H       2.122450      0.938134      3.008372
  H       2.151632     -0.859970      2.972512
  H      -2.464453     -2.108037     -1.537268
  H      -3.330479     -4.216755     -0.499029
  H      -3.267010     -4.489562      1.971041
  H      -2.381141     -2.660629      3.406854
  H      -1.551052     -0.530631      2.342839
  H      -0.874678      2.910809     -0.910658
  H      -0.833561      3.548303      0.755063
  H      -3.233830      3.404880     -1.092209
  H      -3.237126      4.107827      0.555622
  H      -3.835892      1.880052      1.460297
  H      -3.878441      1.246435     -0.206890
  H       1.208712     -0.692024     -4.391702
  H       1.246719      1.101694     -4.335486
  H      -0.249865      0.250628     -4.827663
  H       2.818344      0.081656     -2.981604
45
Coordinates from ORCA-job file E -1359.677200355730
  C       5.388742     -0.050129     -0.077564
  O       4.486428      0.026717     -1.150786
  C       3.165681      0.052300     -0.895246
  C       2.630165     -0.004477      0.393010
  C       1.235946      0.017134      0.558789
  O       0.662134     -0.079516      1.759391
  C       1.454118     -0.142791      2.915704
  C       0.384743      0.110482     -0.557129
  S      -1.390926      0.224774     -0.494064
  C      -1.918489     -1.254372      0.389704
  C      -2.309327     -2.344979     -0.384728
  C      -2.764537     -3.501261      0.248642
  C      -2.835105     -3.546978      1.640197
  C      -2.465005     -2.434794      2.401317
  C      -2.007969     -1.275121      1.778985
  C      -1.783285      1.524577      0.648500
  C      -1.372710      2.893988      0.036432
  C      -2.869765      3.278190     -0.083603
  C      -3.284316      1.883347      0.449830
  C       0.956645      0.161415     -1.851279
  O       0.101512      0.246559     -2.884764
  C       0.612910      0.330374     -4.191125
  C       2.338671      0.132982     -2.020386
  H       6.391764     -0.075273     -0.516521
  H       5.305207      0.826593      0.584926
  H       5.230970     -0.965679      0.514933
  H       3.278295     -0.073463      1.260572
  H       0.759055     -0.202715      3.759855
  H       2.073107      0.761920      3.023480
  H       2.103063     -1.033392      2.912992
  H      -2.249701     -2.279866     -1.473403
  H      -3.072162     -4.362222     -0.347011
  H      -3.196926     -4.450463      2.134492
  H      -2.545931     -2.468840      3.489283
  H      -1.757359     -0.361850      2.323698
  H      -0.840951      2.899297     -0.933394
  H      -0.789849      3.522474      0.729335
  H      -3.187660      3.456006     -1.120365
  H      -3.187266      4.132398      0.530933
  H      -3.849276      1.900464      1.395695
  H      -3.878090      1.293111     -0.273988
  H       1.208689     -0.559535     -4.449024
  H       1.233430      1.230645     -4.322839
  H      -0.255841      0.388574     -4.855126
  H       2.811271      0.173396     -2.998248
45
Coordinates from ORCA-job file E -1359.679176502949
  C       5.353835     -0.036754     -0.081779
  O       4.459119      0.068290     -1.159311
  C       3.135468      0.066957     -0.912722
  C       2.593305     -0.043209      0.369130
  C       1.197988     -0.039748      0.526792
  O       0.611095     -0.185751      1.716191
  C       1.386199     -0.286641      2.880790
  C       0.355446      0.087982     -0.588260
  S      -1.418144      0.192322     -0.504820
  C      -1.911962     -1.277863      0.425424
  C      -2.178501     -2.435874     -0.302431
  C      -2.604719     -3.579401      0.372944
  C      -2.774834     -3.542969      1.757011
  C      -2.531587     -2.364093      2.466174
  C      -2.101054     -1.216847      1.801958
  C      -1.786221      1.520097      0.619634
  C      -1.320291      2.874989      0.018457
  C      -2.797851      3.314633     -0.117666
  C      -3.269396      1.932185      0.390888
  C       0.930290      0.190527     -1.876548
  O       0.078114      0.306477     -2.910707
  C       0.593697      0.439333     -4.211498
  C       2.313314      0.181447     -2.039674
  H       6.361423     -0.032258     -0.511112
  H       5.251619      0.813615      0.611951
  H       5.202758     -0.975906      0.474639
  H       3.236277     -0.136214      1.238440
  H       0.678949     -0.376797      3.712053
  H       2.002149      0.614649      3.027792
  H       2.035953     -1.176773      2.858412
  H      -2.047979     -2.433083     -1.386987
  H      -2.812972     -4.494600     -0.183396
  H      -3.114419     -4.436016      2.284636
  H      -2.687217     -2.338052      3.546319
  H      -1.933911     -0.252733      2.292968
  H      -0.775220      2.865646     -0.944034
  H      -0.719237      3.481311      0.716190
  H      -3.095750      3.522260     -1.155387
  H      -3.094982      4.174043      0.500328
  H      -3.861184      1.956195      1.321132
  H      -3.866563      1.367801     -0.351037
  H       1.196936     -0.437537     -4.496731
  H       1.209495      1.347631     -4.306185
  H      -0.271685      0.515343     -4.878316
  H       2.792350      0.265387     -3.011550
45
Coordinates from ORCA-job file E -1359.680770469991
  C       5.311191     -0.020463     -0.074440
  O       4.425216      0.132525     -1.154074
  C       3.097897      0.090905     -0.922911
  C       2.545743     -0.092989      0.346474
  C       1.149182     -0.114588      0.489164
  O       0.547308     -0.320466      1.662526
  C       1.301327     -0.461817      2.836277
  C       0.317523      0.051926     -0.627904
  S      -1.453205      0.136609     -0.523965
  C      -1.900780     -1.316369      0.467353
  C      -2.077771     -2.530688     -0.192037
  C      -2.473174     -3.647984      0.543423
  C      -2.703579     -3.528378      1.915123
  C      -2.546840     -2.295159      2.551413
  C      -2.145834     -1.173789      1.826940
  C      -1.798726      1.504159      0.563917
  C      -1.260511      2.833401     -0.027635
  C      -2.711544      3.339504     -0.192380
  C      -3.255009      1.978424      0.293577
  C       0.898975      0.227616     -1.902902
  O       0.052474      0.390038     -2.936769
  C       0.575576      0.605723     -4.223794
  C       2.283902      0.249672     -2.051407
  H       6.323745      0.040296     -0.487941
  H       5.176244      0.778261      0.673195
  H       5.179730     -0.999016      0.415490
  H       3.180547     -0.216980      1.218261
  H       0.578360     -0.597477      3.648023
  H       1.903165      0.439277      3.034811
  H       1.961355     -1.343763      2.789427
  H      -1.909089     -2.592901     -1.269706
  H      -2.616118     -4.606853      0.043604
  H      -3.019819     -4.400421      2.490006
  H      -2.743436     -2.207401      3.621608
  H      -2.024000     -0.168449      2.248835
  H      -0.696702      2.796951     -0.978772
  H      -0.642753      3.414754      0.677644
  H      -2.978098      3.573859     -1.233391
  H      -2.984266      4.207475      0.425447
  H      -3.879319      2.020604      1.202658
  H      -3.850037      1.440034     -0.469471
  H       1.195221     -0.244793     -4.551526
  H       1.178258      1.527298     -4.257747
  H      -0.284167      0.706963     -4.894789
  H       2.771938      0.394469     -3.011535
45
Coordinates from ORCA-job file E -1359.682055959757
  C       5.284508      0.002852     -0.104053
  O       4.392963      0.182626     -1.173598
  C       3.071639      0.112371     -0.934374
  C       2.531741     -0.113135      0.334054
  C       1.136895     -0.152454      0.483312
  O       0.546459     -0.374811      1.653809
  C       1.310596     -0.514116      2.819488
  C       0.293944      0.023055     -0.627815
  S      -1.474091      0.087554     -0.497412
  C      -1.910307     -1.361868      0.511251
  C      -1.982753     -2.604161     -0.111744
  C      -2.377116     -3.711602      0.638930
  C      -2.712846     -3.554655      1.984729
  C      -2.660200     -2.293694      2.582042
  C      -2.261152     -1.182179      1.842632
  C      -1.823477      1.489702      0.541114
  C      -1.188009      2.785498     -0.023517
  C      -2.605041      3.363368     -0.254743
  C      -3.238949      2.026618      0.192567
  C       0.864462      0.246274     -1.898248
  O       0.008759      0.432952     -2.914547
  C       0.522618      0.701281     -4.194333
  C       2.248561      0.291265     -2.052977
  H       6.292878      0.107526     -0.517448
  H       5.133373      0.763006      0.679269
  H       5.179140     -0.999728      0.341175
  H       3.172605     -0.248483      1.199858
  H       0.592130     -0.670311      3.631350
  H       1.898365      0.394176      3.025393
  H       1.983718     -1.384876      2.761594
  H      -1.734845     -2.698955     -1.172067
  H      -2.436731     -4.695046      0.170102
  H      -3.027159     -4.420540      2.570659
  H      -2.934315     -2.177663      3.632851
  H      -2.195847     -0.156861      2.230050
  H      -0.584272      2.715709     -0.947389
  H      -0.574096      3.336904      0.708097
  H      -2.808868      3.620217     -1.303660
  H      -2.864431      4.237552      0.358725
  H      -3.913883      2.092855      1.062350
  H      -3.807827      1.515113     -0.607244
  H       1.148565     -0.130670     -4.554435
  H       1.115411      1.629488     -4.198185
  H      -0.341422      0.816976     -4.856248
  H       2.728408      0.470870     -3.011263
45
Coordinates from ORCA-job file E -1359.683378382706
  C       5.242290      0.023938     -0.112038
  O       4.350213      0.209080     -1.180420
  C       3.027978      0.130446     -0.942681
  C       2.488947     -0.121942      0.321479
  C       1.094437     -0.173165      0.468183
  O       0.502084     -0.408959      1.637182
  C       1.261240     -0.556796      2.805434
  C       0.251798      0.007311     -0.643236
  S      -1.514182      0.042701     -0.505333
  C      -1.906852     -1.400153      0.533941
  C      -1.907667     -2.662429     -0.050373
  C      -2.276848     -3.761161      0.725673
  C      -2.659168     -3.577631      2.055460
  C      -2.676372     -2.297434      2.613602
  C      -2.301464     -1.194247      1.849443
  C      -1.866989      1.461639      0.502357
  C      -1.117648      2.727315      0.019416
  C      -2.481263      3.396219     -0.281517
  C      -3.219188      2.084219      0.069061
  C       0.820166      0.266600     -1.906132
  O      -0.038650      0.468324     -2.917889
  C       0.470456      0.767427     -4.193091
  C       2.204361      0.323905     -2.057903
  H       6.250411      0.134951     -0.525118
  H       5.089854      0.778729      0.676352
  H       5.139397     -0.982342      0.326101
  H       3.129358     -0.269082      1.185698
  H       0.538329     -0.721406      3.611907
  H       1.846558      0.350727      3.022164
  H       1.935541     -1.426233      2.743590
  H      -1.623163     -2.782702     -1.098909
  H      -2.277808     -4.761579      0.289524
  H      -2.953235     -4.437902      2.659694
  H      -2.982900     -2.161116      3.652944
  H      -2.270202     -0.155993      2.207114
  H      -0.463747      2.642811     -0.868053
  H      -0.519645      3.222398      0.803140
  H      -2.599587      3.705660     -1.329502
  H      -2.731114      4.258732      0.352090
  H      -3.956690      2.161891      0.885363
  H      -3.744895      1.626653     -0.790353
  H       1.098127     -0.054695     -4.572057
  H       1.059919      1.697771     -4.178746
  H      -0.395499      0.893991     -4.850783
  H       2.683409      0.523527     -3.012676
45
Coordinates from ORCA-job file E -1359.684870184818
  C       5.198836      0.024314     -0.113206
  O       4.307854      0.202754     -1.184377
  C       2.981658      0.132341     -0.949978
  C       2.438275     -0.127657      0.311632
  C       1.043502     -0.179214      0.453014
  O       0.442801     -0.408760      1.625225
  C       1.191148     -0.561429      2.801355
  C       0.206027     -0.001943     -0.663565
  S      -1.556664      0.010505     -0.527032
  C      -1.894883     -1.427630      0.538196
  C      -1.825800     -2.702169     -0.012969
  C      -2.161888     -3.796049      0.785087
  C      -2.579583     -3.599171      2.101811
  C      -2.662493     -2.307044      2.628560
  C      -2.319346     -1.208204      1.843164
  C      -1.909520      1.439562      0.450256
  C      -1.064303      2.678882      0.075738
  C      -2.373201      3.433075     -0.268943
  C      -3.195418      2.144916     -0.035658
  C       0.776476      0.277474     -1.919239
  O      -0.083596      0.489405     -2.931233
  C       0.421766      0.799864     -4.206191
  C       2.161569      0.334527     -2.064967
  H       6.208085      0.120975     -0.528918
  H       5.055125      0.793293      0.663418
  H       5.086259     -0.974784      0.339828
  H       3.075167     -0.282034      1.177037
  H       0.459672     -0.715576      3.602490
  H       1.784737      0.340781      3.019522
  H       1.856175     -1.438349      2.747171
  H      -1.511467     -2.840139     -1.050678
  H      -2.105774     -4.806930      0.376746
  H      -2.847905     -4.457537      2.720037
  H      -2.992844     -2.159668      3.658765
  H      -2.320390     -0.162887      2.181056
  H      -0.369625      2.596425     -0.779569
  H      -0.490393      3.108467      0.915081
  H      -2.412214      3.806632     -1.302292
  H      -2.618360      4.266675      0.404136
  H      -3.983024      2.225425      0.731766
  H      -3.671937      1.749510     -0.951969
  H       1.043579     -0.022043     -4.595085
  H       1.015545      1.727619     -4.186961
  H      -0.446066      0.936530     -4.860274
  H       2.642539      0.539264     -3.017888
45
Coordinates from ORCA-job file E -1359.686366644124
  C       5.163897      0.019648     -0.124073
  O       4.271238      0.203290     -1.193565
  C       2.942718      0.138658     -0.958204
  C       2.398996     -0.131574      0.301628
  C       1.004294     -0.183838      0.442296
  O       0.401314     -0.410951      1.617831
  C       1.146902     -0.573581      2.795616
  C       0.167393     -0.007927     -0.675364
  S      -1.594099     -0.019534     -0.542308
  C      -1.885717     -1.448444      0.550328
  C      -1.755289     -2.730540      0.030733
  C      -2.065321     -3.818020      0.848444
  C      -2.517419     -3.609981      2.151566
  C      -2.659825     -2.309818      2.647526
  C      -2.341347     -1.217066      1.843582
  C      -1.960446      1.416882      0.394436
  C      -1.031717      2.624125      0.141658
  C      -2.279028      3.451431     -0.265579
  C      -3.168843      2.191027     -0.163347
  C       0.737381      0.292857     -1.925749
  O      -0.125624      0.515717     -2.935508
  C       0.375619      0.841785     -4.208897
  C       2.122680      0.352310     -2.069974
  H       6.172729      0.110326     -0.543419
  H       5.028585      0.791052      0.651967
  H       5.045650     -0.978454      0.330454
  H       3.035231     -0.293778      1.165977
  H       0.412460     -0.720681      3.595551
  H       1.750248      0.322100      3.015132
  H       1.802440     -1.457553      2.740790
  H      -1.412644     -2.882731     -0.995933
  H      -1.960596     -4.835440      0.465598
  H      -2.766385     -4.464946      2.782027
  H      -3.014632     -2.152833      3.667941
  H      -2.373107     -0.166945      2.163912
  H      -0.282532      2.540570     -0.665885
  H      -0.505086      2.996502      1.037891
  H      -2.222976      3.877880     -1.277355
  H      -2.543151      4.255983      0.435260
  H      -4.016899      2.276170      0.536219
  H      -3.570383      1.851744     -1.136346
  H       0.993249      0.022765     -4.610459
  H       0.972164      1.767762     -4.182237
  H      -0.494614      0.988933     -4.858189
  H       2.602591      0.565119     -3.021870
45
Coordinates from ORCA-job file E -1359.687651710197
  C       5.158074     -0.077025     -0.135646
  O       4.260786      0.117249     -1.201321
  C       2.925975      0.100825     -0.959671
  C       2.376884     -0.137562      0.304992
  C       0.981348     -0.155774      0.449773
  O       0.373456     -0.339009      1.641572
  C       1.119533     -0.511426      2.821884
  C       0.145784      0.010674     -0.668854
  S      -1.619273      0.002734     -0.567919
  C      -1.857815     -1.423275      0.535437
  C      -1.691101     -2.700664      0.017341
  C      -1.970467     -3.796960      0.836327
  C      -2.424700     -3.606997      2.140114
  C      -2.600289     -2.308757      2.638615
  C      -2.311182     -1.208093      1.835208
  C      -2.019781      1.410799      0.313515
  C      -1.076969      2.625060      0.219994
  C      -2.305220      3.475817     -0.214392
  C      -3.190808      2.207530     -0.258710
  C       0.723486      0.295457     -1.922658
  O      -0.140335      0.525735     -2.938328
  C       0.360105      0.828883     -4.219583
  C       2.109448      0.324186     -2.069331
  H       6.165118     -0.028179     -0.569075
  H       5.061096      0.715181      0.625776
  H       5.009427     -1.060902      0.341246
  H       3.010947     -0.303173      1.169771
  H       0.386149     -0.614573      3.629517
  H       1.759082      0.364781      3.019097
  H       1.742001     -1.419820      2.777250
  H      -1.344817     -2.847036     -1.008641
  H      -1.842921     -4.811076      0.448985
  H      -2.653183     -4.471286      2.764290
  H      -2.956970     -2.162989      3.659247
  H      -2.366282     -0.169231      2.178495
  H      -0.281526      2.593001     -0.545562
  H      -0.618454      2.946699      1.172305
  H      -2.193201      3.972464     -1.188127
  H      -2.620791      4.213277      0.537679
  H      -4.079146      2.252496      0.393698
  H      -3.512387      1.932632     -1.281349
  H       0.954947     -0.007725     -4.620303
  H       0.978584      1.741091     -4.212034
  H      -0.513043      0.991202     -4.863310
  H       2.588533      0.513761     -3.027216
45
Coordinates from ORCA-job file E -1359.690685656137
  C       5.133957     -0.048597     -0.168771
  O       4.232304      0.138258     -1.231808
  C       2.900154      0.107287     -0.982059
  C       2.361205     -0.140123      0.284616
  C       0.966566     -0.166371      0.437903
  O       0.365976     -0.345001      1.631583
  C       1.120935     -0.498795      2.808152
  C       0.121797     -0.006099     -0.672408
  S      -1.645337     -0.014289     -0.554249
  C      -1.867818     -1.442832      0.559941
  C      -1.626250     -2.718802      0.069894
  C      -1.898957     -3.814537      0.892643
  C      -2.422352     -3.625035      2.170469
  C      -2.673530     -2.327832      2.638216
  C      -2.392767     -1.228297      1.831421
  C      -2.057134      1.395133      0.287966
  C      -1.061619      2.565219      0.332283
  C      -2.203034      3.481071     -0.198741
  C      -3.127610      2.253906     -0.378970
  C       0.690193      0.291458     -1.928725
  O      -0.181395      0.524207     -2.935873
  C       0.312133      0.840641     -4.216008
  C       2.074703      0.328522     -2.086250
  H       6.139023      0.014417     -0.604074
  H       5.028708      0.738878      0.596296
  H       4.998299     -1.035729      0.305058
  H       3.001417     -0.302700      1.145614
  H       0.392441     -0.605865      3.619507
  H       1.750769      0.386367      2.995552
  H       1.754182     -1.399922      2.767541
  H      -1.227015     -2.865424     -0.936972
  H      -1.709832     -4.827720      0.528634
  H      -2.642242     -4.488698      2.798689
  H      -3.081536     -2.182277      3.639759
  H      -2.497975     -0.187449      2.158056
  H      -0.192479      2.512845     -0.348300
  H      -0.685835      2.845139      1.332669
  H      -1.973104      4.006159     -1.135794
  H      -2.566275      4.206312      0.543192
  H      -4.081861      2.320085      0.171455
  H      -3.346727      2.020251     -1.438617
  H       0.909110      0.010312     -4.626611
  H       0.927276      1.755012     -4.202537
  H      -0.564487      1.005312     -4.853961
  H       2.546125      0.525605     -3.046283
45
Coordinates from ORCA-job file E -1359.695497113569
  C       5.123125      0.026845     -0.201062
  O       4.227253      0.174641     -1.271986
  C       2.907530      0.114526     -1.014665
  C       2.384682     -0.108201      0.260072
  C       0.991698     -0.148657      0.422647
  O       0.406380     -0.293733      1.610503
  C       1.184373     -0.410779      2.770222
  C       0.133607     -0.024972     -0.676448
  S      -1.645133     -0.010145     -0.513926
  C      -1.897899     -1.478805      0.573602
  C      -1.638238     -2.752202      0.079367
  C      -1.930043     -3.859323      0.879572
  C      -2.493794     -3.678950      2.142666
  C      -2.764027     -2.390900      2.609455
  C      -2.466033     -1.281403      1.822892
  C      -2.088200      1.408907      0.305447
  C      -1.089282      2.548714      0.507336
  C      -2.132939      3.516521     -0.109696
  C      -3.069625      2.328682     -0.439055
  C       0.686687      0.242272     -1.945516
  O      -0.189524      0.438907     -2.943869
  C       0.301194      0.725776     -4.227644
  C       2.068029      0.295304     -2.122024
  H       6.129867      0.113372     -0.622491
  H       4.981086      0.815251      0.556351
  H       5.012292     -0.958493      0.280497
  H       3.034097     -0.231677      1.122050
  H       0.472446     -0.503970      3.597910
  H       1.813071      0.480651      2.923670
  H       1.820486     -1.310305      2.741953
  H      -1.204636     -2.882178     -0.915966
  H      -1.723980     -4.866282      0.513037
  H      -2.731385     -4.545898      2.761511
  H      -3.208889     -2.255929      3.598050
  H      -2.611831     -0.243944      2.147456
  H      -0.145126      2.479668     -0.067074
  H      -0.810262      2.783924      1.548244
  H      -1.785925      4.074816     -0.989645
  H      -2.550393      4.232074      0.611292
  H      -4.079469      2.406928     -0.001098
  H      -3.193311      2.145961     -1.522371
  H       0.905524     -0.108987     -4.617618
  H       0.910305      1.643893     -4.226702
  H      -0.574179      0.870886     -4.868765
  H       2.530491      0.477216     -3.088083
45
Coordinates from ORCA-job file E -1359.698629404788
  C       5.112343      0.038205     -0.243076
  O       4.208095      0.161663     -1.309879
  C       2.891075      0.104846     -1.040592
  C       2.376696     -0.077107      0.244018
  C       0.984212     -0.109103      0.417778
  O       0.403852     -0.200792      1.613661
  C       1.190268     -0.267636      2.771711
  C       0.118716     -0.021982     -0.676310
  S      -1.661800      0.008452     -0.499022
  C      -1.908245     -1.483043      0.570523
  C      -1.603459     -2.743536      0.070953
  C      -1.895138     -3.867801      0.847133
  C      -2.505132     -3.716147      2.093171
  C      -2.820206     -2.439355      2.564636
  C      -2.525719     -1.314747      1.799293
  C      -2.112304      1.402649      0.300099
  C      -1.118635      2.492133      0.684804
  C      -2.058314      3.521981      0.002697
  C      -2.980755      2.382806     -0.495651
  C       0.664544      0.207725     -1.958512
  O      -0.215908      0.372852     -2.958081
  C       0.272367      0.621061     -4.250528
  C       2.044203      0.253677     -2.147453
  H       6.115153      0.123689     -0.672961
  H       4.970140      0.836859      0.502914
  H       5.011811     -0.939471      0.255474
  H       3.031731     -0.169694      1.105063
  H       0.485638     -0.331594      3.607426
  H       1.815764      0.631654      2.884728
  H       1.830859     -1.164489      2.774876
  H      -1.135492     -2.850275     -0.912256
  H      -1.652528     -4.864524      0.474226
  H      -2.741970     -4.595574      2.694621
  H      -3.300836     -2.325692      3.539278
  H      -2.719712     -0.287021      2.129882
  H      -0.115814      2.414277      0.219872
  H      -0.952597      2.669882      1.761559
  H      -1.600195      4.116352     -0.798722
  H      -2.538375      4.210414      0.710264
  H      -4.032497      2.471807     -0.172513
  H      -2.985873      2.259078     -1.594912
  H       0.878565     -0.223390     -4.616350
  H       0.879644      1.539724     -4.278130
  H      -0.604385      0.745236     -4.893776
  H       2.500311      0.405952     -3.121837
45
Coordinates from ORCA-job file E -1359.700915953431
  C       5.100534      0.079953     -0.280402
  O       4.189637      0.165710     -1.344763
  C       2.875272      0.107101     -1.067438
  C       2.366908     -0.025015      0.225877
  C       0.974869     -0.057379      0.406003
  O       0.396390     -0.096252      1.606347
  C       1.188182     -0.093901      2.762205
  C       0.105662     -0.020135     -0.687312
  S      -1.674504      0.021945     -0.486445
  C      -1.924631     -1.492147      0.557963
  C      -1.589776     -2.739158      0.045735
  C      -1.889410     -3.880944      0.792070
  C      -2.537035     -3.758217      2.023358
  C      -2.881053     -2.493215      2.507889
  C      -2.583043     -1.352748      1.767941
  C      -2.122196      1.399330      0.317097
  C      -1.142569      2.421127      0.872787
  C      -1.970007      3.523111      0.157622
  C      -2.868374      2.450574     -0.505180
  C       0.645211      0.157997     -1.981817
  O      -0.236521      0.268360     -2.987129
  C       0.251632      0.464877     -4.288660
  C       2.024083      0.204634     -2.176889
  H       6.100104      0.165203     -0.717170
  H       4.952330      0.893606      0.447377
  H       5.014317     -0.886508      0.242116
  H       3.025764     -0.075070      1.087295
  H       0.490288     -0.133601      3.604812
  H       1.795334      0.822336      2.829525
  H       1.847164     -0.976376      2.802414
  H      -1.095332     -2.821501     -0.927270
  H      -1.623242     -4.866932      0.406891
  H      -2.779484     -4.650246      2.603731
  H      -3.389491     -2.400511      3.470551
  H      -2.812354     -0.333089      2.101627
  H      -0.100227      2.325905      0.508407
  H      -1.081066      2.530234      1.970250
  H      -1.407765      4.145744     -0.550916
  H      -2.501415      4.189642      0.849063
  H      -3.947197      2.558185     -0.295732
  H      -2.757596      2.388849     -1.604208
  H       0.873843     -0.385142     -4.612723
  H       0.843574      1.391226     -4.355561
  H      -0.624510      0.543723     -4.939511
  H       2.477800      0.318713     -3.157726
45
Coordinates from ORCA-job file E -1359.702840472870
  C       5.115458      0.043974     -0.329471
  O       4.188747      0.143131     -1.378511
  C       2.877323      0.093872     -1.087205
  C       2.379045     -0.024333      0.211951
  C       0.987834     -0.049785      0.403805
  O       0.421295     -0.096488      1.612506
  C       1.233123     -0.068140      2.754664
  C       0.109376     -0.009910     -0.685647
  S      -1.672794      0.046899     -0.466895
  C      -1.924035     -1.465381      0.576295
  C      -1.518576     -2.697629      0.080745
  C      -1.818031     -3.851931      0.806422
  C      -2.532718     -3.756070      2.003065
  C      -2.944770     -2.505017      2.473248
  C      -2.653110     -1.352650      1.748684
  C      -2.157464      1.424482      0.299629
  C      -1.251649      2.424527      1.000577
  C      -2.003382      3.549960      0.236330
  C      -2.806046      2.499453     -0.570176
  C       0.640781      0.141996     -1.987970
  O      -0.247223      0.230858     -2.989519
  C       0.233134      0.402045     -4.298487
  C       2.018891      0.181979     -2.191273
  H       6.108296      0.125358     -0.781947
  H       4.984539      0.851026      0.408065
  H       5.032754     -0.926275      0.186459
  H       3.045660     -0.074504      1.066974
  H       0.555968     -0.126773      3.612417
  H       1.812359      0.867300      2.807779
  H       1.920909     -0.928553      2.781278
  H      -0.972615     -2.757129     -0.866294
  H      -1.496097     -4.825305      0.431461
  H      -2.773154     -4.657802      2.569208
  H      -3.504956     -2.431252      3.408104
  H      -2.952961     -0.345268      2.059123
  H      -0.177319      2.351051      0.743090
  H      -1.307852      2.488493      2.102309
  H      -1.364940      4.202761     -0.373854
  H      -2.619487      4.188305      0.882575
  H      -3.903191      2.593928     -0.493481
  H      -2.561936      2.478364     -1.648651
  H       0.861925     -0.449052     -4.606421
  H       0.815770      1.331773     -4.389573
  H      -0.647464      0.456115     -4.945487
  H       2.468682      0.281598     -3.175800
45
Coordinates from ORCA-job file E -1359.704503037276
  C       5.108594      0.033276     -0.352376
  O       4.181521      0.121916     -1.401776
  C       2.869421      0.077684     -1.109593
  C       2.374010     -0.013254      0.192951
  C       0.983186     -0.033382      0.387258
  O       0.419675     -0.069638      1.599662
  C       1.235718     -0.012295      2.738144
  C       0.102337     -0.008128     -0.703499
  S      -1.681874      0.062617     -0.473749
  C      -1.929056     -1.439865      0.562231
  C      -1.423831     -2.652357      0.111336
  C      -1.715718     -3.813951      0.827935
  C      -2.516960     -3.745551      1.970010
  C      -3.026142     -2.515166      2.396130
  C      -2.743210     -1.354155      1.681293
  C      -2.171244      1.444055      0.297079
  C      -1.283800      2.390069      1.089569
  C      -1.998809      3.565299      0.363788
  C      -2.754750      2.572176     -0.552928
  C       0.630294      0.108397     -2.008042
  O      -0.262090      0.172218     -3.007640
  C       0.212191      0.300052     -4.324467
  C       2.008937      0.141922     -2.212833
  H       6.101813      0.111489     -0.805746
  H       4.977582      0.847187      0.378191
  H       5.027001     -0.932846      0.172635
  H       3.044156     -0.050203      1.046355
  H       0.562870     -0.054784      3.600669
  H       1.810542      0.927705      2.768442
  H       1.928047     -0.868246      2.780402
  H      -0.806563     -2.690012     -0.791258
  H      -1.317504     -4.771591      0.488058
  H      -2.748846     -4.653348      2.529548
  H      -3.652816     -2.462938      3.288830
  H      -3.112176     -0.360253      1.957266
  H      -0.202421      2.328782      0.858175
  H      -1.380953      2.381959      2.189311
  H      -1.326391      4.252474     -0.166901
  H      -2.651633      4.162022      1.014096
  H      -3.854210      2.671461     -0.543733
  H      -2.436188      2.611709     -1.610708
  H       0.835742     -0.563300     -4.607831
  H       0.797623      1.224540     -4.448357
  H      -0.671978      0.335285     -4.968195
  H       2.458002      0.220968     -3.199632
45
Coordinates from ORCA-job file E -1359.705888071841
  C       5.117085      0.087844     -0.377061
  O       4.185518      0.150651     -1.424630
  C       2.872181      0.075175     -1.132616
  C       2.379643     -0.022615      0.171211
  C       0.989780     -0.067074      0.367845
  O       0.428329     -0.145935      1.583446
  C       1.239599     -0.071607      2.725114
  C       0.107186     -0.035566     -0.721286
  S      -1.683045      0.072108     -0.493854
  C      -1.944556     -1.398705      0.547265
  C      -1.355629     -2.598800      0.163311
  C      -1.645166     -3.754847      0.889406
  C      -2.520325     -3.696387      1.974621
  C      -3.109719     -2.482190      2.335045
  C      -2.832809     -1.323952      1.611572
  C      -2.173114      1.458977      0.280386
  C      -1.299771      2.360857      1.139567
  C      -2.003942      3.570859      0.463492
  C      -2.718428      2.629195     -0.537943
  C       0.631298      0.067241     -2.026094
  O      -0.266808      0.109729     -3.024744
  C       0.200039      0.213700     -4.347142
  C       2.009154      0.116674     -2.233634
  H       6.107560      0.190829     -0.832706
  H       4.967785      0.900967      0.351602
  H       5.061290     -0.878475      0.151165
  H       3.053988     -0.051800      1.021371
  H       0.567054     -0.136892      3.586986
  H       1.786681      0.884978      2.761714
  H       1.957300     -0.906716      2.763998
  H      -0.676129     -2.627407     -0.692470
  H      -1.187781     -4.701844      0.597832
  H      -2.748859     -4.600579      2.540803
  H      -3.795784     -2.439395      3.183031
  H      -3.273056     -0.347170      1.832735
  H      -0.216688      2.325919      0.912273
  H      -1.414728      2.284325      2.234253
  H      -1.315941      4.290280     -0.001190
  H      -2.685903      4.123465      1.122820
  H      -3.817098      2.726583     -0.572878
  H      -2.348153      2.729232     -1.573993
  H       0.829795     -0.649537     -4.617348
  H       0.775590      1.140952     -4.495102
  H      -0.688682      0.227167     -4.986242
  H       2.455358      0.199785     -3.221831
45
Coordinates from ORCA-job file E -1359.706807919293
  C       5.111095      0.145420     -0.392573
  O       4.184977      0.175924     -1.446538
  C       2.869516      0.086707     -1.160538
  C       2.373844     -0.018595      0.141466
  C       0.985154     -0.090030      0.331767
  O       0.418722     -0.187573      1.543572
  C       1.212850     -0.074483      2.693661
  C       0.106818     -0.068856     -0.757453
  S      -1.690377      0.050860     -0.536974
  C      -1.952002     -1.394571      0.521211
  C      -1.324690     -2.598879      0.205544
  C      -1.620440     -3.732501      0.963788
  C      -2.535516     -3.653920      2.012781
  C      -3.160530     -2.441531      2.304315
  C      -2.877614     -1.302310      1.552427
  C      -2.165950      1.443359      0.249077
  C      -1.316380      2.278738      1.194583
  C      -1.984142      3.534595      0.573922
  C      -2.636329      2.669874     -0.533420
  C       0.631773      0.041569     -2.058346
  O      -0.267750      0.071637     -3.059125
  C       0.197205      0.173851     -4.381794
  C       2.008938      0.108941     -2.264292
  H       6.104062      0.243759     -0.844814
  H       4.953326      0.978449      0.312320
  H       5.057035     -0.806471      0.161880
  H       3.046123     -0.039397      0.994138
  H       0.528155     -0.136820      3.546926
  H       1.740698      0.893428      2.719344
  H       1.946501     -0.894349      2.759553
  H      -0.611186     -2.646952     -0.619520
  H      -1.135952     -4.680918      0.726336
  H      -2.766447     -4.541266      2.603691
  H      -3.875028     -2.382867      3.127466
  H      -3.333592     -0.324659      1.733015
  H      -0.226697      2.253130      0.996423
  H      -1.467109      2.130523      2.276920
  H      -1.273367      4.287519      0.205869
  H      -2.706775      4.034643      1.232488
  H      -3.727479      2.788798     -0.643622
  H      -2.183268      2.831097     -1.527614
  H       0.833873     -0.685187     -4.649435
  H       0.764667      1.105735     -4.535298
  H      -0.691991      0.178351     -5.021089
  H       2.455377      0.195229     -3.251937
45
Coordinates from ORCA-job file E -1359.706830511042
  C       5.140742      0.190180     -0.419474
  O       4.206741      0.171983     -1.466129
  C       2.891924      0.083798     -1.178090
  C       2.392222      0.032919      0.127123
  C       1.004103     -0.050459      0.315624
  O       0.431956     -0.115777      1.531668
  C       1.211187      0.081575      2.680590
  C       0.131843     -0.077770     -0.777688
  S      -1.671509      0.077563     -0.568408
  C      -1.971898     -1.374906      0.454896
  C      -1.382163     -2.597313      0.125483
  C      -1.702471     -3.729204      0.872030
  C      -2.603802     -3.637925      1.933538
  C      -3.187363     -2.411713      2.246312
  C      -2.879683     -1.271715      1.502452
  C      -2.129416      1.438366      0.277772
  C      -1.308873      2.218440      1.290772
  C      -2.013767      3.493529      0.769401
  C      -2.617284      2.704313     -0.421977
  C       0.658910     -0.023347     -2.080909
  O      -0.234650     -0.052907     -3.088540
  C       0.235308     -0.013975     -4.412201
  C       2.035414      0.052259     -2.285417
  H       6.130209      0.273841     -0.882099
  H       4.982630      1.051948      0.249298
  H       5.097432     -0.736955      0.175327
  H       3.061967      0.058720      0.981009
  H       0.522756      0.055113      3.531780
  H       1.717165      1.060807      2.653083
  H       1.963451     -0.715301      2.799956
  H      -0.674310     -2.657009     -0.703292
  H      -1.247065     -4.687923      0.618914
  H      -2.857436     -4.526169      2.514085
  H      -3.894904     -2.340818      3.074221
  H      -3.334436     -0.295913      1.687669
  H      -0.220968      2.246932      1.082986
  H      -1.451351      1.973536      2.358205
  H      -1.326640      4.302286      0.485205
  H      -2.767632      3.901399      1.455734
  H      -3.707246      2.802302     -0.549642
  H      -2.140395      2.959284     -1.384772
  H       0.884086     -0.876943     -4.633970
  H       0.790644      0.916259     -4.611995
  H      -0.650105     -0.052388     -5.055645
  H       2.484774      0.099079     -3.274785
45
Coordinates from ORCA-job file E -1359.707703792024
  C       5.126572      0.198757     -0.416870
  O       4.199949      0.197532     -1.469267
  C       2.887361      0.086961     -1.191523
  C       2.382347     -0.029869      0.107432
  C       0.994365     -0.132910      0.280962
  O       0.413982     -0.265625      1.487116
  C       1.174686     -0.094841      2.651450
  C       0.127531     -0.121934     -0.817611
  S      -1.677278      0.040010     -0.604431
  C      -1.955110     -1.385256      0.479502
  C      -1.346862     -2.616732      0.231229
  C      -1.658411     -3.706409      1.038598
  C      -2.573684     -3.571553      2.086020
  C      -3.174183     -2.337111      2.322801
  C      -2.869086     -1.238775      1.517721
  C      -2.118502      1.420411      0.206341
  C      -1.340397      2.204306      1.246838
  C      -2.047071      3.470639      0.712463
  C      -2.581873      2.682396     -0.513908
  C       0.660496      0.004196     -2.114164
  O      -0.227598      0.029497     -3.125676
  C       0.247317      0.149031     -4.440705
  C       2.037745      0.101987     -2.306443
  H       6.116923      0.305103     -0.872103
  H       4.954272      1.044335      0.268530
  H       5.091063     -0.741357      0.156819
  H       3.044563     -0.041731      0.968171
  H       0.473138     -0.160458      3.489343
  H       1.666207      0.891805      2.663080
  H       1.937617     -0.883146      2.758543
  H      -0.622348     -2.718977     -0.579728
  H      -1.180160     -4.670060      0.854485
  H      -2.818438     -4.429734      2.714298
  H      -3.890940     -2.226717      3.138709
  H      -3.323169     -0.256294      1.664406
  H      -0.247798      2.241651      1.068602
  H      -1.504885      1.956938      2.311251
  H      -1.378874      4.307619      0.473822
  H      -2.844323      3.833661      1.373847
  H      -3.663493      2.778293     -0.698798
  H      -2.048753      2.942639     -1.445529
  H       0.890702     -0.702340     -4.714590
  H       0.809917      1.085839     -4.581417
  H      -0.634533      0.160357     -5.089484
  H       2.491117      0.197868     -3.290033
45
Coordinates from ORCA-job file E -1359.707930830292
  C       5.129608      0.176142     -0.406622
  O       4.208058      0.157700     -1.463896
  C       2.891922      0.070561     -1.187885
  C       2.384294     -0.011064      0.112295
  C       0.995065     -0.096742      0.286149
  O       0.414389     -0.194956      1.495384
  C       1.182868     -0.014367      2.653613
  C       0.129693     -0.103492     -0.815026
  S      -1.671894      0.070626     -0.597388
  C      -1.952275     -1.374386      0.463685
  C      -1.359570     -2.603085      0.175428
  C      -1.672724     -3.711037      0.958039
  C      -2.570564     -3.592762      2.021603
  C      -3.156272     -2.358658      2.297801
  C      -2.851340     -1.243812      1.515516
  C      -2.101718      1.448492      0.223470
  C      -1.323017      2.229441      1.263736
  C      -2.087425      3.483579      0.776457
  C      -2.599421      2.712055     -0.469509
  C       0.664677     -0.015762     -2.112585
  O      -0.223103     -0.018031     -3.124579
  C       0.250876      0.063356     -4.443770
  C       2.043988      0.062926     -2.303459
  H       6.124197      0.257983     -0.858726
  H       4.963928      1.041420      0.256120
  H       5.079383     -0.748887      0.191403
  H       3.045477     -0.010434      0.973972
  H       0.483785     -0.049081      3.496464
  H       1.693342      0.963169      2.642869
  H       1.930839     -0.815096      2.774034
  H      -0.647966     -2.691353     -0.648987
  H      -1.213566     -4.676273      0.737453
  H      -2.816690     -4.464506      2.629710
  H      -3.859211     -2.260402      3.126978
  H      -3.290301     -0.259025      1.694734
  H      -0.237136      2.307776      1.057308
  H      -1.451384      1.950797      2.324558
  H      -1.459218      4.358577      0.561113
  H      -2.895481      3.787381      1.454679
  H      -3.683242      2.784006     -0.655015
  H      -2.069636      3.006956     -1.392317
  H       0.893476     -0.796661     -4.692730
  H       0.814286      0.995386     -4.611652
  H      -0.631673      0.055568     -5.092286
  H       2.500776      0.125972     -3.288040
45
Coordinates from ORCA-job file E -1359.708067841359
  C       5.132957      0.196920     -0.412949
  O       4.214739      0.149848     -1.472683
  C       2.896779      0.054534     -1.199595
  C       2.385502     -0.010163      0.100147
  C       0.995516     -0.096319      0.271608
  O       0.411483     -0.174364      1.481996
  C       1.178493      0.027732      2.638323
  C       0.133580     -0.117669     -0.832075
  S      -1.666509      0.083414     -0.614139
  C      -1.959995     -1.358038      0.446129
  C      -1.368651     -2.586724      0.157424
  C      -1.683974     -3.694110      0.941029
  C      -2.581477     -3.573200      2.003639
  C      -3.164981     -2.337807      2.280540
  C      -2.858322     -1.223600      1.497758
  C      -2.075868      1.461023      0.217067
  C      -1.320895      2.206082      1.298023
  C      -2.124915      3.457939      0.868397
  C      -2.565383      2.746284     -0.439368
  C       0.672131     -0.051642     -2.128335
  O      -0.213910     -0.072581     -3.141836
  C       0.262882     -0.006967     -4.461475
  C       2.051862      0.027720     -2.316148
  H       6.127528      0.290557     -0.863207
  H       4.949932      1.066826      0.239238
  H       5.097638     -0.721857      0.195831
  H       3.044184      0.006853      0.963109
  H       0.478832      0.017380      3.481450
  H       1.695959      1.001139      2.606199
  H       1.920828     -0.775158      2.777967
  H      -0.656143     -2.675234     -0.665735
  H      -1.226989     -4.660499      0.721071
  H      -2.828419     -4.444499      2.611740
  H      -3.868683     -2.237530      3.108578
  H      -3.299596     -0.239619      1.675586
  H      -0.237034      2.327556      1.094258
  H      -1.437791      1.869644      2.342670
  H      -1.537562      4.377359      0.735499
  H      -2.970061      3.670152      1.536181
  H      -3.638800      2.813424     -0.678380
  H      -1.990304      3.095724     -1.314923
  H       0.905153     -0.870413     -4.699900
  H       0.827507      0.922531     -4.639136
  H      -0.618875     -0.021872     -5.111141
  H       2.511751      0.079222     -3.300332
45
Coordinates from ORCA-job file E -1359.707627252927
  C       5.121382      0.194932     -0.374389
  O       4.220969      0.133780     -1.449637
  C       2.901496      0.040958     -1.179729
  C       2.389760      0.001363      0.118404
  C       0.997185     -0.055372      0.292699
  O       0.418309     -0.123442      1.499798
  C       1.216061      0.000200      2.647109
  C       0.132939     -0.074184     -0.809304
  S      -1.655485      0.141714     -0.581093
  C      -1.956534     -1.334967      0.460848
  C      -1.428878     -2.555546      0.060024
  C      -1.729231     -3.698379      0.804500
  C      -2.549790     -3.603163      1.927862
  C      -3.080881     -2.367315      2.304608
  C      -2.794084     -1.224352      1.560237
  C      -2.067098      1.520797      0.238293
  C      -1.307833      2.311010      1.279662
  C      -2.180275      3.527335      0.850832
  C      -2.630039      2.772057     -0.427819
  C       0.675819     -0.075371     -2.107513
  O      -0.209234     -0.132900     -3.117071
  C       0.272819     -0.101513     -4.437176
  C       2.057691     -0.017265     -2.294581
  H       6.120057      0.315234     -0.808562
  H       4.906101      1.052018      0.285170
  H       5.098822     -0.731232      0.225181
  H       3.049205      0.019264      0.980812
  H       0.535391     -0.019881      3.506117
  H       1.770687      0.953551      2.644715
  H       1.927987     -0.836498      2.734988
  H      -0.785288     -2.613219     -0.821499
  H      -1.326245     -4.665629      0.499097
  H      -2.777167     -4.496409      2.510905
  H      -3.722530     -2.289532      3.184060
  H      -3.199539     -0.238448      1.808112
  H      -0.230672      2.457617      1.045601
  H      -1.374326      1.996241      2.332403
  H      -1.654043      4.480206      0.691480
  H      -3.018361      3.698025      1.539219
  H      -3.711461      2.794595     -0.646240
  H      -2.093284      3.124275     -1.327978
  H       0.918783     -0.968982     -4.649850
  H       0.837268      0.823877     -4.635851
  H      -0.608146     -0.138208     -5.086609
  H       2.521792      0.002759     -3.277736
45
Coordinates from ORCA-job file E -1359.708202786218
  C       5.131355      0.229321     -0.413185
  O       4.222401      0.151044     -1.479101
  C       2.904693      0.053035     -1.207066
  C       2.393200     -0.009217      0.092117
  C       1.003125     -0.098360      0.264476
  O       0.421995     -0.187010      1.473972
  C       1.194765      0.001489      2.628876
  C       0.140257     -0.123729     -0.838656
  S      -1.657185      0.092900     -0.621747
  C      -1.968190     -1.344198      0.448274
  C      -1.400953     -2.577737      0.138843
  C      -1.716297     -3.684544      0.925990
  C      -2.588021     -3.552039      2.007542
  C      -3.151246     -2.310043      2.299638
  C      -2.846544     -1.197747      1.514567
  C      -2.061727      1.474327      0.202670
  C      -1.342689      2.203055      1.316159
  C      -2.166367      3.448337      0.897777
  C      -2.535912      2.766876     -0.447798
  C       0.681600     -0.072926     -2.135513
  O      -0.203584     -0.112716     -3.148988
  C       0.274804     -0.042248     -4.467868
  C       2.061153      0.008644     -2.323479
  H       6.127376      0.330774     -0.857908
  H       4.929203      1.106099      0.223580
  H       5.105457     -0.679992      0.210098
  H       3.052401      0.006588      0.954774
  H       0.501905     -0.030819      3.476800
  H       1.702891      0.979879      2.611572
  H       1.944904     -0.797255      2.747467
  H      -0.711014     -2.670374     -0.702697
  H      -1.279248     -4.657050      0.692934
  H      -2.831592     -4.421380      2.620225
  H      -3.836342     -2.203319      3.142575
  H      -3.273205     -0.209883      1.704431
  H      -0.256781      2.348149      1.136115
  H      -1.466784      1.840317      2.350492
  H      -1.618099      4.398236      0.829905
  H      -3.048015      3.589439      1.536717
  H      -3.593518      2.832405     -0.749737
  H      -1.912858      3.142748     -1.280092
  H       0.926485     -0.898461     -4.705709
  H       0.830522      0.892626     -4.644078
  H      -0.606489     -0.066703     -5.117408
  H       2.522268      0.051463     -3.307457
45
Coordinates from ORCA-job file E -1359.708196466880
  C       5.132633      0.218072     -0.407215
  O       4.219862      0.151617     -1.470781
  C       2.902554      0.052000     -1.198842
  C       2.389682     -0.006589      0.100608
  C       0.999943     -0.092827      0.271482
  O       0.413998     -0.165240      1.479920
  C       1.180323      0.025420      2.638136
  C       0.138423     -0.117653     -0.832006
  S      -1.659381      0.086541     -0.615554
  C      -1.962332     -1.356007      0.446744
  C      -1.405274     -2.593358      0.129252
  C      -1.724125     -3.701624      0.911320
  C      -2.591743     -3.570225      1.997196
  C      -3.144031     -2.325957      2.298450
  C      -2.835251     -1.211316      1.517704
  C      -2.064429      1.465179      0.217042
  C      -1.311083      2.216270      1.294258
  C      -2.138497      3.456611      0.877052
  C      -2.567689      2.745763     -0.434016
  C       0.679270     -0.066835     -2.128715
  O      -0.204819     -0.098940     -3.143809
  C       0.274903     -0.028030     -4.461809
  C       2.058905      0.013323     -2.316363
  H       6.126895      0.328734     -0.853748
  H       4.930135      1.085997      0.241510
  H       5.111563     -0.699615      0.203592
  H       3.047551      0.014258      0.964215
  H       0.480823     -0.000830      3.480807
  H       1.691681      1.002237      2.619674
  H       1.926767     -0.775490      2.766084
  H      -0.720059     -2.687348     -0.716279
  H      -1.293721     -4.675426      0.671433
  H      -2.840380     -4.441191      2.605544
  H      -3.824804     -2.220279      3.145002
  H      -3.254147     -0.220502      1.711277
  H      -0.231581      2.354864      1.080840
  H      -1.409888      1.875724      2.339916
  H      -1.578924      4.394653      0.759231
  H      -2.989900      3.630320      1.548310
  H      -3.638857      2.803441     -0.684969
  H      -1.987247      3.104361     -1.303443
  H       0.919864     -0.888930     -4.701228
  H       0.838260      0.903237     -4.633928
  H      -0.605232     -0.042492     -5.113379
  H       2.519454      0.058082     -3.300416
45
Coordinates from ORCA-job file E -1359.708233192380
  C       5.130907      0.232885     -0.412109
  O       4.220792      0.155167     -1.477268
  C       2.903673      0.052560     -1.205194
  C       2.391579     -0.009269      0.094228
  C       1.002117     -0.100619      0.265771
  O       0.418124     -0.181330      1.474292
  C       1.186210      0.009735      2.631380
  C       0.139565     -0.127199     -0.837144
  S      -1.657451      0.086917     -0.620310
  C      -1.967510     -1.349815      0.447923
  C      -1.403496     -2.585667      0.138851
  C      -1.721621     -3.691155      0.925826
  C      -2.593824     -3.556615      2.007256
  C      -3.152779     -2.313000      2.299562
  C      -2.845139     -1.201314      1.514470
  C      -2.059749      1.468138      0.206701
  C      -1.326679      2.203159      1.307607
  C      -2.150940      3.447262      0.891958
  C      -2.539102      2.757959     -0.443389
  C       0.680508     -0.074817     -2.133942
  O      -0.204375     -0.112071     -3.148036
  C       0.273516     -0.034963     -4.466494
  C       2.059876      0.009595     -2.322183
  H       6.125396      0.346397     -0.857393
  H       4.922030      1.103278      0.231249
  H       5.113609     -0.681419      0.203991
  H       3.050023      0.010992      0.957458
  H       0.489406     -0.025110      3.475989
  H       1.690602      0.990222      2.615785
  H       1.938570     -0.786444      2.753602
  H      -0.714135     -2.680159     -0.703160
  H      -1.286401     -4.664633      0.693264
  H      -2.840818     -4.425132      2.619768
  H      -3.837588     -2.205723      3.142664
  H      -3.268840     -0.211535      1.701736
  H      -0.243537      2.346642      1.113284
  H      -1.440015      1.847580      2.346223
  H      -1.600535      4.394755      0.811915
  H      -3.023981      3.593270      1.541751
  H      -3.599908      2.824019     -0.733568
  H      -1.924847      3.126987     -1.285303
  H       0.922986     -0.891516     -4.709288
  H       0.831463      0.899805     -4.636803
  H      -0.607681     -0.052891     -5.116466
  H       2.520098      0.055071     -3.306356
45
Coordinates from ORCA-job file E -1359.708241905204
  C       5.131265      0.237714     -0.413460
  O       4.221228      0.153901     -1.478289
  C       2.904225      0.053133     -1.205466
  C       2.392633     -0.007882      0.094263
  C       1.003330     -0.099646      0.266467
  O       0.420025     -0.182098      1.475098
  C       1.189182      0.004450      2.632167
  C       0.140096     -0.127064     -0.836131
  S      -1.656713      0.086917     -0.619531
  C      -1.968644     -1.349010      0.448678
  C      -1.405515     -2.585143      0.138938
  C      -1.724206     -3.690651      0.925557
  C      -2.596142     -3.555767      2.007170
  C      -3.154378     -2.311937      2.299908
  C      -2.846219     -1.200106      1.515234
  C      -2.060017      1.468653      0.206407
  C      -1.327634      2.203764      1.307909
  C      -2.153186      3.447124      0.892159
  C      -2.535354      2.759089     -0.445414
  C       0.680715     -0.075873     -2.133172
  O      -0.204358     -0.115799     -3.146785
  C       0.272752     -0.036862     -4.465426
  C       2.059992      0.008600     -2.322094
  H       6.125842      0.347823     -0.859351
  H       4.922768      1.112186      0.224373
  H       5.113219     -0.672797      0.208200
  H       3.051445      0.012157      0.957190
  H       0.493148     -0.035344      3.477166
  H       1.692130      0.985725      2.620598
  H       1.942672     -0.791272      2.750078
  H      -0.716461     -2.679205     -0.703353
  H      -1.289576     -4.664315      0.692602
  H      -2.843645     -4.424205      2.619602
  H      -3.839019     -2.205063      3.143219
  H      -3.269414     -0.210013      1.701825
  H      -0.244663      2.348726      1.112975
  H      -1.440069      1.847933      2.346435
  H      -1.606203      4.396954      0.817099
  H      -3.029234      3.586977      1.539244
  H      -3.594039      2.826511     -0.742825
  H      -1.915302      3.128004     -1.283288
  H       0.923060     -0.892431     -4.709408
  H       0.829447      0.898749     -4.635014
  H      -0.608793     -0.055198     -5.114867
  H       2.519709      0.052592     -3.306589
45
Coordinates from ORCA-job file E -1359.708253603622
  C       5.129999      0.245300     -0.414800
  O       4.220378      0.156528     -1.479787
  C       2.903791      0.054663     -1.206065
  C       2.393151     -0.007227      0.094094
  C       1.004320     -0.101715      0.267364
  O       0.421616     -0.185054      1.475998
  C       1.191185     -0.002586      2.633334
  C       0.139800     -0.129911     -0.834284
  S      -1.656586      0.083348     -0.617906
  C      -1.970788     -1.350206      0.451255
  C      -1.407192     -2.586802      0.143239
  C      -1.726621     -3.691523      0.930334
  C      -2.599748     -3.555516      2.010974
  C      -3.158492     -2.311516      2.301735
  C      -2.849726     -1.200196      1.516603
  C      -2.061635      1.466192      0.206118
  C      -1.327054      2.202189      1.306178
  C      -2.150628      3.445894      0.887771
  C      -2.523811      2.758383     -0.451931
  C       0.679622     -0.077798     -2.131848
  O      -0.206008     -0.119982     -3.144804
  C       0.268807     -0.032225     -4.463733
  C       2.058647      0.008995     -2.322109
  H       6.124072      0.359613     -0.860683
  H       4.917107      1.119244      0.222251
  H       5.115871     -0.665014      0.207201
  H       3.052430      0.014170      0.956670
  H       0.495630     -0.051786      3.478223
  H       1.688975      0.981372      2.627873
  H       1.948663     -0.795288      2.745755
  H      -0.717363     -2.680455     -0.698476
  H      -1.291395     -4.665266      0.698844
  H      -2.847970     -4.423081      2.624344
  H      -3.843893     -2.205236      3.144538
  H      -3.272332     -0.209249      1.700004
  H      -0.244257      2.345750      1.108287
  H      -1.437748      1.849399      2.345769
  H      -1.607245      4.398288      0.820000
  H      -3.031751      3.578051      1.529638
  H      -3.577822      2.832378     -0.764042
  H      -1.890791      3.122389     -1.282638
  H       0.920360     -0.885078     -4.713867
  H       0.823210      0.905598     -4.628321
  H      -0.613751     -0.048400     -5.111843
  H       2.517074      0.053366     -3.307157
45
Coordinates from ORCA-job file E -1359.708263459572
  C       5.129675      0.245707     -0.415522
  O       4.219212      0.156322     -1.479822
  C       2.902822      0.055421     -1.205203
  C       2.392876     -0.006227      0.095313
  C       1.004211     -0.100686      0.269373
  O       0.421963     -0.183713      1.478096
  C       1.192029     -0.003759      2.635439
  C       0.138912     -0.129067     -0.831672
  S      -1.657613      0.081002     -0.615497
  C      -1.971390     -1.351964      0.453098
  C      -1.407213     -2.588583      0.145425
  C      -1.726538     -3.693607      0.931772
  C      -2.600713     -3.558425      2.011802
  C      -3.160080     -2.314727      2.302426
  C      -2.851380     -1.203031      1.517864
  C      -2.066405      1.463661      0.208858
  C      -1.325506      2.203399      1.302864
  C      -2.147746      3.446757      0.881756
  C      -2.519946      2.755850     -0.455972
  C       0.678041     -0.076854     -2.129619
  O      -0.207822     -0.119225     -3.142160
  C       0.265884     -0.026240     -4.461110
  C       2.056946      0.010108     -2.320747
  H       6.123486      0.358984     -0.862226
  H       4.917611      1.120386      0.220726
  H       5.115417     -0.664083      0.207220
  H       3.052472      0.015483      0.957635
  H       0.496652     -0.056642      3.480241
  H       1.688360      0.980942      2.632737
  H       1.950653     -0.795703      2.745405
  H      -0.716758     -2.681289     -0.695927
  H      -1.290600     -4.667011      0.700226
  H      -2.849204     -4.426130      2.624857
  H      -3.846017     -2.209615      3.144951
  H      -3.274073     -0.211892      1.700137
  H      -0.243605      2.344258      1.098116
  H      -1.431643      1.856080      2.344748
  H      -1.605041      4.399460      0.813177
  H      -3.029618      3.578395      1.522688
  H      -3.571798      2.834499     -0.774032
  H      -1.880895      3.113307     -1.285072
  H       0.917361     -0.878034     -4.715026
  H       0.819800      0.912442     -4.622385
  H      -0.617146     -0.040134     -5.108631
  H       2.514466      0.054177     -3.306227
45
Coordinates from ORCA-job file E -1359.708272991834
  C       5.128628      0.243417     -0.416005
  O       4.217156      0.158223     -1.479772
  C       2.900998      0.056614     -1.204561
  C       2.391758     -0.005894      0.096158
  C       1.003152     -0.100446      0.270857
  O       0.421404     -0.183251      1.479759
  C       1.191565     -0.001772      2.636824
  C       0.137325     -0.128226     -0.829683
  S      -1.659646      0.078471     -0.613300
  C      -1.971717     -1.354021      0.455120
  C      -1.405284     -2.590066      0.148881
  C      -1.723787     -3.695531      0.934737
  C      -2.600023     -3.561884      2.013358
  C      -3.161846     -2.319018      2.302782
  C      -2.853825     -1.206999      1.518548
  C      -2.073329      1.460331      0.212758
  C      -1.324933      2.203064      1.300354
  C      -2.144192      3.446890      0.876283
  C      -2.513655      2.753370     -0.460418
  C       0.675728     -0.074504     -2.127947
  O      -0.210469     -0.115888     -3.140140
  C       0.262344     -0.019034     -4.459147
  C       2.054535      0.012658     -2.319659
  H       6.122127      0.357369     -0.863214
  H       4.917765      1.116134      0.223324
  H       5.114290     -0.668437      0.203702
  H       3.051615      0.015931      0.958283
  H       0.496209     -0.054248      3.481667
  H       1.687466      0.983134      2.633163
  H       1.950626     -0.793197      2.747563
  H      -0.713324     -2.681868     -0.691371
  H      -1.285763     -4.668156      0.703927
  H      -2.848128     -4.429898      2.626118
  H      -3.849261     -2.214918      3.144221
  H      -3.278151     -0.216326      1.699770
  H      -0.243932      2.339717      1.088069
  H      -1.426229      1.861392      2.344562
  H      -1.601109      4.399456      0.807913
  H      -3.027708      3.579168      1.514787
  H      -3.562488      2.838833     -0.786534
  H      -1.865719      3.102972     -1.286110
  H       0.913324     -0.870324     -4.716039
  H       0.816337      0.920026     -4.617916
  H      -0.621098     -0.030854     -5.106165
  H       2.511365      0.057587     -3.305410
45
Coordinates from ORCA-job file E -1359.708277902988
  C       5.127636      0.241108     -0.416785
  O       4.215221      0.160495     -1.479983
  C       2.899207      0.057658     -1.204531
  C       2.390380     -0.006298      0.096196
  C       1.001697     -0.100843      0.271130
  O       0.420513     -0.184681      1.480221
  C       1.190700      0.001013      2.636670
  C       0.135801     -0.127859     -0.829286
  S      -1.661727      0.077299     -0.612452
  C      -1.972202     -1.355019      0.456144
  C      -1.402472     -2.589976      0.151963
  C      -1.719801     -3.695764      0.937933
  C      -2.598452     -3.563715      2.014738
  C      -3.163646     -2.321903      2.302307
  C      -2.856664     -1.209765      1.517938
  C      -2.079261      1.458091      0.215741
  C      -1.326657      2.200897      1.300758
  C      -2.141940      3.446248      0.874623
  C      -2.507499      2.752678     -0.463041
  C       0.673824     -0.072512     -2.127665
  O      -0.212611     -0.111911     -3.139701
  C       0.260326     -0.014931     -4.458675
  C       2.052560      0.014874     -2.319447
  H       6.121019      0.354221     -0.864479
  H       4.919153      1.112613      0.225009
  H       5.112097     -0.672182      0.200786
  H       3.050420      0.014792      0.958190
  H       0.495517     -0.047155      3.481910
  H       1.687676      0.985342      2.628864
  H       1.949086     -0.790644      2.750523
  H      -0.708554     -2.681360     -0.686721
  H      -1.279005     -4.667462      0.708540
  H      -2.845584     -4.432066      2.627411
  H      -3.852952     -2.218071      3.142208
  H      -3.283742     -0.220235      1.698797
  H      -0.245877      2.333875      1.084886
  H      -1.426179      1.861770      2.345951
  H      -1.597228      4.398102      0.808147
  H      -3.027730      3.579890      1.509630
  H      -3.553614      2.844014     -0.796125
  H      -1.851235      3.097144     -1.284322
  H       0.910961     -0.866465     -4.715659
  H       0.814748      0.923903     -4.617284
  H      -0.623077     -0.026413     -5.105760
  H       2.509266      0.061203     -3.305199
45
Coordinates from ORCA-job file E -1359.708278732045
  C       5.127099      0.240355     -0.417581
  O       4.214340      0.162886     -1.480603
  C       2.898376      0.058846     -1.205250
  C       2.389636     -0.006627      0.095373
  C       1.000882     -0.101644      0.270243
  O       0.420083     -0.187514      1.479437
  C       1.190101      0.001790      2.635474
  C       0.135165     -0.127911     -0.830323
  S      -1.662741      0.077405     -0.613120
  C      -1.972688     -1.354733      0.456072
  C      -1.400161     -2.588755      0.153890
  C      -1.716655     -3.694388      0.940646
  C      -2.597213     -3.563012      2.015881
  C      -3.165235     -2.321984      2.301345
  C      -2.858970     -1.210037      1.516382
  C      -2.081748      1.457663      0.216439
  C      -1.329546      2.198183      1.303319
  C      -2.141929      3.445181      0.876845
  C      -2.503017      2.754066     -0.463450
  C       0.673127     -0.070979     -2.128636
  O      -0.213471     -0.109584     -3.140622
  C       0.259895     -0.015792     -4.459699
  C       2.051820      0.016810     -2.320237
  H       6.120489      0.353248     -0.865331
  H       4.919936      1.110861      0.226047
  H       5.110806     -0.673978      0.198433
  H       3.049819      0.013432      0.957276
  H       0.495078     -0.042509      3.481061
  H       1.688022      0.985603      2.624052
  H       1.947828     -0.790117      2.752055
  H      -0.704569     -2.680316     -0.683338
  H      -1.273563     -4.665455      0.713011
  H      -2.843516     -4.431394      2.628853
  H      -3.856236     -2.217753      3.139787
  H      -3.288587     -0.221569      1.696741
  H      -0.248360      2.330014      1.088602
  H      -1.430382      1.857896      2.347994
  H      -1.595990      4.396625      0.814094
  H      -3.030135      3.578751      1.508464
  H      -3.547242      2.848504     -0.801438
  H      -1.841042      3.097748     -1.280418
  H       0.910739     -0.867870     -4.714346
  H       0.814371      0.922633     -4.620518
  H      -0.623320     -0.029017     -5.106999
  H       2.508802      0.064440     -3.305807
