45
Coordinates from ORCA-job file
  C   5.12709906856113      0.24035515611441     -0.41758121651672
  O   4.21433996009999      0.16288622944171     -1.48060301379910
  C   2.89837569940579      0.05884559896350     -1.20524952393657
  C   2.38963635865878     -0.00662684523190      0.09537250717777
  C   1.00088201519749     -0.10164434388906      0.27024292367941
  O   0.42008263005726     -0.18751429336370      1.47943668111871
  C   1.19010124110484      0.00179018010090      2.63547413609811
  C   0.13516478549871     -0.12791091208894     -0.83032296671787
  S   -1.66274086450781      0.07740503664607     -0.61312020430473
  C   -1.97268757200262     -1.35473272239862      0.45607239613792
  C   -1.40016075802522     -2.58875453672242      0.15388993406941
  C   -1.71665509505557     -3.69438832309797      0.94064555088914
  C   -2.59721255459430     -3.56301236100326      2.01588094012190
  C   -3.16523491230198     -2.32198449178758      2.30134491251072
  C   -2.85897032997797     -1.21003713523048      1.51638226301502
  C   -2.08174813475136      1.45766338149208      0.21643924748475
  C   -1.32954550096617      2.19818305614292      1.30331935269640
  C   -2.14192945855802      3.44518059920075      0.87684500594372
  C   -2.50301709369186      2.75406581457970     -0.46345021396054
  C   0.67312677551407     -0.07097889034135     -2.12863558038295
  O   -0.21347104815573     -0.10958423628514     -3.14062245478324
  C   0.25989505587275     -0.01579202771044     -4.45969861640616
  C   2.05182031096688      0.01681015048585     -2.32023706943846
  H   6.12048886094968      0.35324773727207     -0.86533100615863
  H   4.91993638285808      1.11086144379972      0.22604689744582
  H   5.11080609419015     -0.67397843707217      0.19843276884046
  H   3.04981870613209      0.01343193152469      0.95727581794081
  H   0.49507834378839     -0.04250855403393      3.48106080292530
  H   1.68802239554166      0.98560285053226      2.62405221759610
  H   1.94782759098715     -0.79011725618332      2.75205478259405
  H   -0.70456899781996     -2.68031567429799     -0.68333781647133
  H   -1.27356323462781     -4.66545477010115      0.71301136698436
  H   -2.84351575919218     -4.43139402588809      2.62885311709440
  H   -3.85623598675175     -2.21775347260085      3.13978676498339
  H   -3.28858685163095     -0.22156854699861      1.69674103798149
  H   -0.24835966169140      2.33001432941220      1.08860167849440
  H   -1.43038185324145      1.85789606277499      2.34799417957299
  H   -1.59598979043941      4.39662473484446      0.81409359177782
  H   -3.03013474094006      3.57875114454734      1.50846395151972
  H   -3.54724192673947      2.84850389782387     -0.80143830523526
  H   -1.84104209287996      3.09774760515415     -1.28041816354481
  H   0.91073858137172     -0.86787036539364     -4.71434557930741
  H   0.81437132325652      0.92263273107565     -4.62051801311553
  H   -0.62332003303242     -0.02901697042307     -5.10699855443958
  H   2.50880207156228      0.06443952021440     -3.30580652817514
