23
Coordinates from ORCA-job file
  C   1.60820390103605      1.34180768425015      0.50999874614499
  C   0.55010263192162      0.42190474947442     -0.09777297946768
  C   -0.51442392763614      1.21312049541540     -0.89043468484596
  N   -1.72852076948228      0.40743310147950     -0.73913900449948
  C   -1.74639432741551      0.06676510815841      0.68721393433605
  C   -0.29739899422032     -0.37624533427502      0.95129259068927
  C   -0.03697348277917     -1.85971148598830      0.59390486813407
  N   0.35829740624332     -1.90223376208806     -0.81796873920971
  C   1.18561668988250     -0.70320013178726     -0.96215239901037
  H   2.32582891746781      0.76773886477811      1.10756730237303
  H   1.15267194607777      2.09780471133880      1.16012662345628
  H   2.16958969439186      1.86674782562783     -0.27346334382659
  H   -0.25023046370005      1.33447834906748     -1.94716288515287
  H   -0.62746597367679      2.22054676502122     -0.44829918920595
  H   -2.56248840474883      0.90821764044308     -1.02808175303586
  H   -1.99262590627206      0.93894916039272      1.32026535628491
  H   -2.47884039641466     -0.72182967531392      0.89407104291109
  H   -0.00024942539781     -0.15461911049121      1.98220204660038
  H   -0.90533162175464     -2.50277062472529      0.77224143304950
  H   0.79500642903107     -2.24814040829064      1.19684136133648
  H   -0.48192156788180     -1.76413815184065     -1.37451486206419
  H   1.28610973874708     -0.42333433479139     -2.01617297092527
  H   2.19133790658096     -0.92939143585537     -0.58046249407212
