23
Coordinates from ORCA-job file E -384.887791490212
  C       1.572200      1.327700      0.523500
  C       0.529700      0.395200     -0.123200
  C      -0.513900      1.192500     -0.930400
  N      -1.808100      0.561000     -0.701300
  C      -1.739600      0.039700      0.658300
  C      -0.286600     -0.369700      0.912700
  C      -0.028100     -1.849700      0.612900
  N       0.481500     -1.946200     -0.750400
  C       1.206000     -0.699700     -0.973100
  H       2.284900      0.745500      1.146700
  H       1.075300      2.076500      1.177400
  H       2.143500      1.865000     -0.263600
  H      -0.292400      1.210000     -2.018500
  H      -0.555500      2.252300     -0.585800
  H      -2.561800      1.286300     -0.754100
  H      -2.024800      0.837100      1.383000
  H      -2.454200     -0.801900      0.779300
  H      -0.001600     -0.137000      1.964200
  H      -0.930700     -2.486300      0.743900
  H       0.750500     -2.232800      1.308800
  H      -0.341300     -1.958900     -1.399100
  H       1.234400     -0.450900     -2.056900
  H       2.260500     -0.855800     -0.654200
23
Coordinates from ORCA-job file E -384.894971211571
  C       1.580814      1.337530      0.514599
  C       0.536438      0.412676     -0.117474
  C      -0.507407      1.212945     -0.925734
  N      -1.792819      0.535226     -0.704563
  C      -1.760254      0.049037      0.682671
  C      -0.303368     -0.373960      0.927718
  C      -0.030308     -1.862994      0.610512
  N       0.448809     -1.939841     -0.771384
  C       1.201295     -0.701349     -0.972224
  H       2.288068      0.763921      1.125221
  H       1.103490      2.085490      1.158756
  H       2.152429      1.869511     -0.256849
  H      -0.270764      1.227855     -1.996478
  H      -0.534342      2.261379     -0.579439
  H      -2.548151      1.201268     -0.809440
  H      -2.051047      0.837034      1.399834
  H      -2.460028     -0.786104      0.807939
  H      -0.010026     -0.139632      1.956914
  H      -0.915649     -2.493854      0.743195
  H       0.752167     -2.250209      1.278040
  H      -0.352466     -1.938195     -1.393300
  H       1.235082     -0.448349     -2.037135
  H       2.237941     -0.859484     -0.641276
23
Coordinates from ORCA-job file E -384.896449171051
  C       1.589124      1.339063      0.514377
  C       0.540930      0.417424     -0.111339
  C      -0.508803      1.216270     -0.914218
  N      -1.772769      0.493631     -0.716313
  C      -1.757748      0.057443      0.687800
  C      -0.304029     -0.375409      0.935291
  C      -0.031516     -1.863373      0.607147
  N       0.420684     -1.927662     -0.784699
  C       1.196321     -0.701731     -0.969760
  H       2.299255      0.765203      1.120341
  H       1.119429      2.089782      1.159885
  H       2.159553      1.869856     -0.258100
  H      -0.261691      1.254847     -1.981281
  H      -0.554590      2.256015     -0.544150
  H      -2.557714      1.116070     -0.878465
  H      -2.040378      0.865711      1.385078
  H      -2.463211     -0.768858      0.832586
  H      -0.003787     -0.139253      1.961620
  H      -0.912607     -2.496949      0.750260
  H       0.764705     -2.252314      1.255807
  H      -0.390815     -1.898805     -1.394952
  H       1.244347     -0.440835     -2.031594
  H       2.225211     -0.876225     -0.625219
23
Coordinates from ORCA-job file E -384.897496997668
  C       1.598314      1.339193      0.514348
  C       0.544679      0.420972     -0.105626
  C      -0.510664      1.217906     -0.903635
  N      -1.753160      0.457431     -0.725905
  C      -1.753854      0.062224      0.689037
  C      -0.302024     -0.374739      0.942813
  C      -0.033785     -1.861164      0.604030
  N       0.395426     -1.916465     -0.796073
  C       1.190488     -0.700923     -0.968038
  H       2.310884      0.763011      1.115677
  H       1.136227      2.092195      1.163001
  H       2.166557      1.868091     -0.261325
  H      -0.254917      1.285350     -1.967391
  H      -0.581131      2.247298     -0.507791
  H      -2.562959      1.028168     -0.945769
  H      -2.027567      0.892650      1.364031
  H      -2.466933     -0.753732      0.854699
  H       0.001260     -0.139928      1.968873
  H      -0.911306     -2.497334      0.759186
  H       0.775772     -2.251910      1.235031
  H      -0.427299     -1.852053     -1.388911
  H       1.253416     -0.432304     -2.027488
  H       2.212476     -0.894035     -0.612675
23
Coordinates from ORCA-job file E -384.898103591549
  C       1.607013      1.338896      0.512987
  C       0.548238      0.422889     -0.100090
  C      -0.512333      1.217961     -0.893015
  N      -1.733864      0.423151     -0.737193
  C      -1.749465      0.064330      0.685676
  C      -0.299184     -0.373770      0.949185
  C      -0.034921     -1.858484      0.601325
  N       0.372003     -1.907338     -0.806250
  C       1.184338     -0.700976     -0.966398
  H       2.321921      0.761183      1.110193
  H       1.151346      2.093597      1.164366
  H       2.171707      1.865490     -0.266945
  H      -0.249630      1.321509     -1.952050
  H      -0.611938      2.233071     -0.466110
  H      -2.561167      0.946989     -1.004696
  H      -2.011577      0.919454      1.334872
  H      -2.472439     -0.737743      0.873766
  H       0.000729     -0.143325      1.977287
  H      -0.907553     -2.498040      0.770493
  H       0.787924     -2.248235      1.215676
  H      -0.462691     -1.802321     -1.377444
  H       1.261856     -0.426034     -2.023464
  H       2.199587     -0.912353     -0.602072
23
Coordinates from ORCA-job file E -384.898213376055
  C       1.624432      1.326538      0.508275
  C       0.548279      0.426128     -0.096572
  C      -0.508788      1.237265     -0.874926
  N      -1.716218      0.417131     -0.761831
  C      -1.758444      0.048126      0.657962
  C      -0.304676     -0.367252      0.952196
  C      -0.018682     -1.850263      0.620424
  N       0.347267     -1.907575     -0.798079
  C       1.162901     -0.703898     -0.972729
  H       2.338021      0.739918      1.098357
  H       1.184352      2.086548      1.164174
  H       2.188331      1.846134     -0.276996
  H      -0.233614      1.391215     -1.924512
  H      -0.632567      2.230022     -0.403081
  H      -2.549489      0.913864     -1.059747
  H      -2.038781      0.902314      1.300571
  H      -2.477823     -0.759892      0.833862
  H      -0.024453     -0.125226      1.983263
  H      -0.870949     -2.506656      0.825867
  H       0.832373     -2.212275      1.213195
  H      -0.503800     -1.779802     -1.340655
  H       1.232137     -0.430370     -2.030865
  H       2.180091     -0.922096     -0.618052
23
Coordinates from ORCA-job file E -384.898193591169
  C       1.606302      1.343082      0.513006
  C       0.550846      0.421858     -0.097061
  C      -0.516164      1.206503     -0.894648
  N      -1.728784      0.399508     -0.735848
  C      -1.742515      0.073839      0.692927
  C      -0.296189     -0.377667      0.951510
  C      -0.040375     -1.860647      0.587291
  N       0.357559     -1.898844     -0.824635
  C       1.188902     -0.702061     -0.960571
  H       2.321708      0.768047      1.112479
  H       1.150062      2.099368      1.162591
  H       2.170077      1.867627     -0.268897
  H      -0.253051      1.327746     -1.951672
  H      -0.632193      2.213978     -0.453133
  H      -2.566595      0.889850     -1.031038
  H      -1.979282      0.954499      1.318271
  H      -2.479076     -0.708061      0.910380
  H       0.000416     -0.159909      1.983418
  H      -0.907742     -2.505100      0.766035
  H       0.792997     -2.249238      1.188249
  H      -0.482829     -1.752525     -1.378851
  H       1.293192     -0.419661     -2.013574
  H       2.192634     -0.932291     -0.576129
23
Coordinates from ORCA-job file E -384.898195816468
  C       1.613108      1.340268      0.507897
  C       0.550452      0.423617     -0.096061
  C      -0.512283      1.220502     -0.884148
  N      -1.722366      0.408129     -0.744595
  C      -1.750487      0.058485      0.680416
  C      -0.298364     -0.373841      0.953588
  C      -0.032452     -1.856709      0.600573
  N       0.349608     -1.901207     -0.813717
  C       1.179327     -0.704104     -0.963112
  H       2.332577      0.765547      1.102458
  H       1.160976      2.096871      1.159316
  H       2.172669      1.864493     -0.277478
  H      -0.244587      1.347683     -1.939301
  H      -0.628092      2.224823     -0.436152
  H      -2.556549      0.903146     -1.043169
  H      -2.005301      0.926315      1.315328
  H      -2.479559     -0.735122      0.880126
  H      -0.000620     -0.148363      1.983589
  H      -0.899786     -2.499746      0.783433
  H       0.803170     -2.244562      1.198739
  H      -0.493698     -1.759505     -1.365198
  H       1.276321     -0.424992     -2.017700
  H       2.185837     -0.931830     -0.584731
23
Coordinates from ORCA-job file E -384.898219906880
  C       1.606019      1.342395      0.510773
  C       0.549764      0.421229     -0.098579
  C      -0.515194      1.210871     -0.892614
  N      -1.731178      0.408464     -0.736818
  C      -1.745143      0.069464      0.689752
  C      -0.297004     -0.377163      0.950444
  C      -0.038509     -1.860839      0.591754
  N       0.362409     -1.903040     -0.818782
  C       1.187990     -0.702755     -0.962044
  H       2.322609      0.768574      1.109845
  H       1.148843      2.098134      1.160096
  H       2.168620      1.867521     -0.271672
  H      -0.252464      1.328378     -1.950130
  H      -0.625906      2.220219     -0.454159
  H      -2.564554      0.912557     -1.021542
  H      -1.988309      0.942503      1.323025
  H      -2.478716     -0.717488      0.898670
  H       0.000636     -0.157117      1.981516
  H      -0.907620     -2.503553      0.767591
  H       0.791330     -2.249900      1.197274
  H      -0.476206     -1.768305     -1.378362
  H       1.288576     -0.422784     -2.016016
  H       2.193909     -0.927462     -0.579924
23
Coordinates from ORCA-job file E -384.898225862703
  C       1.608765      1.341504      0.509912
  C       0.550163      0.422037     -0.097624
  C      -0.514378      1.213537     -0.889964
  N      -1.727886      0.406895     -0.739757
  C      -1.746546      0.066495      0.686585
  C      -0.297507     -0.376039      0.951452
  C      -0.036611     -1.859472      0.594308
  N       0.357371     -1.902029     -0.817965
  C       1.185031     -0.703246     -0.962276
  H       2.326377      0.767140      1.107225
  H       1.153722      2.097645      1.160244
  H       2.170083      1.866287     -0.273700
  H      -0.249865      1.336424     -1.946434
  H      -0.628276      2.220276     -0.446422
  H      -2.562219      0.906191     -1.030143
  H      -1.993190      0.938835      1.319279
  H      -2.478951     -0.722187      0.893276
  H      -0.000791     -0.154060      1.982407
  H      -0.904466     -2.502969      0.773609
  H       0.796192     -2.247274      1.196498
  H      -0.483358     -1.762858     -1.373481
  H       1.285564     -0.423347     -2.016289
  H       2.190674     -0.929886     -0.580640
23
Coordinates from ORCA-job file E -384.898225805105
  C       1.608204      1.341808      0.509999
  C       0.550103      0.421905     -0.097773
  C      -0.514424      1.213120     -0.890435
  N      -1.728521      0.407433     -0.739139
  C      -1.746394      0.066765      0.687214
  C      -0.297399     -0.376245      0.951293
  C      -0.036973     -1.859711      0.593905
  N       0.358297     -1.902234     -0.817969
  C       1.185617     -0.703200     -0.962152
  H       2.325829      0.767739      1.107567
  H       1.152672      2.097805      1.160127
  H       2.169590      1.866748     -0.273463
  H      -0.250230      1.334478     -1.947163
  H      -0.627466      2.220547     -0.448299
  H      -2.562488      0.908218     -1.028082
  H      -1.992626      0.938949      1.320265
  H      -2.478840     -0.721830      0.894071
  H      -0.000249     -0.154619      1.982202
  H      -0.905332     -2.502771      0.772241
  H       0.795006     -2.248140      1.196841
  H      -0.481922     -1.764138     -1.374515
  H       1.286110     -0.423334     -2.016173
  H       2.191338     -0.929391     -0.580462
