14
Coordinates from ORCA-job file
  C   -1.51634039445523      0.08034928610610      0.19785136548670
  C   -0.61133776139619     -0.66031384325045     -0.82893063137289
  C   0.57458277227571      0.05852336983751     -0.19047973942159
  C   -0.34672821777198      1.06091442675233      0.50027582577605
  C   1.83892078431196     -0.50231173618193      0.28484201982832
  O   1.78439834043002      0.38120064746825     -0.84770376079550
  H   -2.43787677472418      0.52165084224186     -0.19007695399406
  H   -1.75829215778361     -0.54834528656776      1.05980959914914
  H   -0.77318301016456     -0.30862108169041     -1.85340787891897
  H   -0.60834871320609     -1.75435994725952     -0.81618726818361
  H   -0.13762819296966      1.30495406333869      1.54610280019488
  H   -0.42051847135277      1.98574045274461     -0.08178645718144
  H   2.09485531235565     -1.53564005761793      0.04910949246964
  H   2.31749648445093     -0.08364113592136      1.17058158696331
