14
Coordinates from ORCA-job file E -270.618222237107
  C      -1.543100      0.229900      0.009400
  C      -0.619100     -0.825400     -0.629700
  C       0.515800     -0.135700      0.073100
  C      -0.352200      0.911700      0.711300
  C       1.978000     -0.362600      0.076000
  O       1.373400      0.467000     -0.878200
  H      -2.021000      0.888500     -0.748700
  H      -2.262600     -0.216400      0.730600
  H      -0.584500     -0.754000     -1.739500
  H      -0.795200     -1.847500     -0.231600
  H      -0.387500      0.805600      1.816600
  H      -0.169500      1.946300      0.345200
  H       2.315300     -1.324500     -0.362300
  H       2.552200      0.217200      0.827800
14
Coordinates from ORCA-job file E -270.630478710514
  C      -1.572445      0.234549      0.009211
  C      -0.630828     -0.832930     -0.625770
  C       0.534159     -0.119316      0.048094
  C      -0.362651      0.911862      0.721235
  C       1.990468     -0.355689      0.064662
  O       1.424747      0.487364     -0.915430
  H      -2.060203      0.879396     -0.728964
  H      -2.296659     -0.194996      0.709665
  H      -0.577471     -0.791866     -1.717424
  H      -0.815412     -1.844955     -0.244268
  H      -0.405607      0.820731      1.813833
  H      -0.158689      1.932841      0.386266
  H       2.351195     -1.306582     -0.334053
  H       2.579396      0.179691      0.812941
14
Coordinates from ORCA-job file E -270.634910490687
  C      -1.580994      0.237395      0.007185
  C      -0.634901     -0.832330     -0.621709
  C       0.542024     -0.092942      0.012305
  C      -0.367347      0.908565      0.722350
  C       1.985685     -0.348964      0.056952
  O       1.451626      0.503407     -0.942014
  H      -2.084949      0.877253     -0.721147
  H      -2.313801     -0.184966      0.700138
  H      -0.575747     -0.828538     -1.712672
  H      -0.814059     -1.843354     -0.241105
  H      -0.404914      0.816966      1.812979
  H      -0.150885      1.936615      0.422422
  H       2.362076     -1.304559     -0.311036
  H       2.586186      0.155551      0.815353
14
Coordinates from ORCA-job file E -270.637039601934
  C      -1.583071      0.237924      0.006826
  C      -0.634885     -0.827144     -0.623666
  C       0.546175     -0.064644     -0.025011
  C      -0.368137      0.909284      0.716920
  C       1.978601     -0.348584      0.057776
  O       1.476088      0.512731     -0.958657
  H      -2.097369      0.875494     -0.716547
  H      -2.319581     -0.182176      0.697710
  H      -0.591501     -0.853890     -1.715969
  H      -0.791591     -1.837376     -0.230655
  H      -0.385910      0.801458      1.806751
  H      -0.161011      1.948776      0.448019
  H       2.354557     -1.311657     -0.291651
  H       2.577636      0.139901      0.828154
14
Coordinates from ORCA-job file E -270.638295036335
  C      -1.584246      0.235429      0.010170
  C      -0.633167     -0.820018     -0.629590
  C       0.549841     -0.038341     -0.059528
  C      -0.367120      0.913119      0.708336
  C       1.971269     -0.352766      0.064452
  O       1.502488      0.517358     -0.968839
  H      -2.102461      0.872074     -0.711455
  H      -2.321494     -0.184081      0.700485
  H      -0.617795     -0.867285     -1.722364
  H      -0.759161     -1.828385     -0.221228
  H      -0.357815      0.784684      1.795943
  H      -0.183188      1.963096      0.462660
  H       2.339759     -1.322267     -0.274119
  H       2.563090      0.127483      0.845078
14
Coordinates from ORCA-job file E -270.638975954467
  C      -1.585031      0.229968      0.017256
  C      -0.631018     -0.812049     -0.638230
  C       0.553242     -0.013805     -0.091688
  C      -0.365460      0.919243      0.698147
  C       1.962642     -0.359303      0.074415
  O       1.532135      0.519170     -0.975380
  H      -2.104986      0.866254     -0.703787
  H      -2.321006     -0.190291      0.708274
  H      -0.649012     -0.871598     -1.730511
  H      -0.722567     -1.819323     -0.218313
  H      -0.324734      0.773645      1.782777
  H      -0.211580      1.977797      0.468531
  H       2.321728     -1.334740     -0.256215
  H       2.545647      0.115130      0.864725
14
Coordinates from ORCA-job file E -270.639174028857
  C      -1.585518      0.216308      0.034995
  C      -0.628564     -0.798251     -0.656949
  C       0.556717      0.004423     -0.116021
  C      -0.362897      0.933215      0.679724
  C       1.952356     -0.372626      0.093722
  O       1.568720      0.511370     -0.971763
  H      -2.132756      0.845692     -0.671528
  H      -2.297174     -0.220063      0.741910
  H      -0.674631     -0.838701     -1.749562
  H      -0.690480     -1.814221     -0.253451
  H      -0.289199      0.800313      1.764030
  H      -0.239847      1.992804      0.435395
  H       2.299654     -1.355587     -0.226693
  H       2.523618      0.095424      0.896190
14
Coordinates from ORCA-job file E -270.639268003694
  C      -1.584268      0.202088      0.053159
  C      -0.626625     -0.785061     -0.676751
  C       0.558629      0.011725     -0.126006
  C      -0.360470      0.948473      0.661679
  C       1.944138     -0.386818      0.113831
  O       1.596516      0.498775     -0.961549
  H      -2.175022      0.819183     -0.628512
  H      -2.256986     -0.258062      0.782954
  H      -0.685574     -0.787406     -1.769548
  H      -0.675516     -1.815145     -0.309476
  H      -0.266018      0.850894      1.747912
  H      -0.257102      2.001766      0.383036
  H       2.282342     -1.376049     -0.196849
  H       2.505957      0.075737      0.926121
14
Coordinates from ORCA-job file E -270.639318488380
  C      -1.579068      0.189221      0.068569
  C      -0.624382     -0.775699     -0.695299
  C       0.558885      0.025441     -0.143874
  C      -0.357196      0.963443      0.647564
  C       1.932073     -0.399477      0.132665
  O       1.627753      0.488023     -0.954148
  H      -2.205607      0.795439     -0.591339
  H      -2.219954     -0.288260      0.814186
  H      -0.708263     -0.749736     -1.785488
  H      -0.651305     -1.817347     -0.360404
  H      -0.234527      0.895481      1.733045
  H      -0.283434      2.012349      0.346308
  H       2.261007     -1.394992     -0.167115
  H       2.484018      0.056215      0.955330
14
Coordinates from ORCA-job file E -270.639492764335
  C      -1.578626      0.182332      0.078693
  C      -0.622962     -0.767362     -0.704878
  C       0.558957      0.017428     -0.135386
  C      -0.354649      0.968884      0.636946
  C       1.928938     -0.407942      0.145705
  O       1.628096      0.475911     -0.946687
  H      -2.247404      0.773817     -0.553308
  H      -2.176546     -0.317197      0.844213
  H      -0.692942     -0.693857     -1.793885
  H      -0.664504     -1.822408     -0.414028
  H      -0.236202      0.944474      1.725495
  H      -0.277316      2.003839      0.291637
  H       2.257514     -1.406111     -0.145026
  H       2.477647      0.048291      0.970508
14
Coordinates from ORCA-job file E -270.639481213906
  C      -1.571813      0.169197      0.092637
  C      -0.623689     -0.758102     -0.726159
  C       0.559855      0.029284     -0.148749
  C      -0.355163      0.988885      0.622267
  C       1.920417     -0.422320      0.164640
  O       1.663490      0.465131     -0.932559
  H      -2.276212      0.745610     -0.513443
  H      -2.134490     -0.346903      0.873054
  H      -0.720303     -0.664234     -1.810436
  H      -0.644026     -1.819999     -0.466139
  H      -0.211252      0.994808      1.706233
  H      -0.306876      2.019074      0.260935
  H       2.238532     -1.425246     -0.121016
  H       2.461530      0.024915      0.998733
14
Coordinates from ORCA-job file E -270.639795125717
  C      -1.569858      0.154956      0.111046
  C      -0.622096     -0.741318     -0.741335
  C       0.562495      0.027225     -0.146390
  C      -0.355255      0.999799      0.601662
  C       1.914299     -0.435137      0.181676
  O       1.678659      0.452258     -0.917682
  H      -2.312621      0.713021     -0.464390
  H      -2.085664     -0.383000      0.911116
  H      -0.716007     -0.602349     -1.822194
  H      -0.644720     -1.812368     -0.520340
  H      -0.207116      1.045251      1.684434
  H      -0.313597      2.015703      0.198189
  H       2.223905     -1.442653     -0.098654
  H       2.447575      0.008711      1.022862
14
Coordinates from ORCA-job file E -270.640001622363
  C      -1.564208      0.140740      0.128475
  C      -0.620805     -0.725815     -0.758405
  C       0.564518      0.029616     -0.149928
  C      -0.354585      1.012313      0.582149
  C       1.904842     -0.448352      0.200558
  O       1.698327      0.438281     -0.903863
  H      -2.345116      0.678927     -0.413835
  H      -2.030840     -0.417701      0.945481
  H      -0.721070     -0.544720     -1.832959
  H      -0.640545     -1.804369     -0.577401
  H      -0.196653      1.096816      1.661170
  H      -0.328229      2.013638      0.141412
  H       2.205254     -1.460768     -0.072427
  H       2.429110     -0.008504      1.049575
14
Coordinates from ORCA-job file E -270.640198714782
  C      -1.556765      0.126541      0.145388
  C      -0.619365     -0.710404     -0.775156
  C       0.566418      0.033245     -0.154881
  C      -0.353901      1.024680      0.562799
  C       1.893826     -0.461486      0.219549
  O       1.718129      0.424498     -0.889929
  H      -2.373887      0.643589     -0.362642
  H      -1.973009     -0.450793      0.977002
  H      -0.728347     -0.488063     -1.841483
  H      -0.635484     -1.794925     -0.634010
  H      -0.185787      1.147847      1.636530
  H      -0.345179      2.010221      0.086360
  H       2.184532     -1.478761     -0.046049
  H       2.408819     -0.026090      1.076523
14
Coordinates from ORCA-job file E -270.640385808359
  C      -1.547613      0.112425      0.161901
  C      -0.617737     -0.694855     -0.791438
  C       0.568469      0.037858     -0.161318
  C      -0.352973      1.036256      0.543503
  C       1.881143     -0.474224      0.238625
  O       1.737514      0.410740     -0.876388
  H      -2.398598      0.607457     -0.311049
  H      -1.912466     -0.482237      1.005821
  H      -0.737218     -0.431714     -1.847682
  H      -0.630162     -1.783842     -0.689598
  H      -0.174598      1.196985      1.610628
  H      -0.363873      2.004705      0.032530
  H       2.161769     -1.496336     -0.019115
  H       2.386343     -0.043117      1.103578
14
Coordinates from ORCA-job file E -270.640545369736
  C      -1.536754      0.098494      0.178009
  C      -0.615872     -0.679292     -0.807220
  C       0.570801      0.043521     -0.169480
  C      -0.351654      1.046884      0.524330
  C       1.866640     -0.486451      0.257718
  O       1.756404      0.397226     -0.863357
  H      -2.419071      0.570935     -0.259321
  H      -1.849616     -0.511850      1.031818
  H      -0.747722     -0.376030     -1.851530
  H      -0.624474     -1.771339     -0.743924
  H      -0.162918      1.243832      1.583666
  H      -0.384171      1.996976     -0.019828
  H       2.136991     -1.513341      0.008406
  H       2.361416     -0.059464      1.130714
14
Coordinates from ORCA-job file E -270.640653450661
  C      -1.524063      0.084956      0.193465
  C      -0.613544     -0.664065     -0.822350
  C       0.573596      0.050708     -0.180044
  C      -0.349615      1.056419      0.505666
  C       1.849838     -0.498001      0.276689
  O       1.774732      0.384441     -0.851229
  H      -2.434880      0.534757     -0.208294
  H      -1.784954     -0.539378      1.054517
  H      -0.760305     -0.322043     -1.852913
  H      -0.617774     -1.757879     -0.796236
  H      -0.150136      1.287865      1.556209
  H      -0.406247      1.987071     -0.069802
  H       2.109862     -1.529546      0.036411
  H       2.333489     -0.075206      1.157910
14
Coordinates from ORCA-job file E -270.640686591398
  C      -1.517531      0.079770      0.199174
  C      -0.611834     -0.658558     -0.828261
  C       0.575132      0.055838     -0.187446
  C      -0.347682      1.059806      0.498837
  C       1.840634     -0.502357      0.284605
  O       1.782500      0.380246     -0.847524
  H      -2.438909      0.520916     -0.188646
  H      -1.757602     -0.549723      1.061963
  H      -0.768255     -0.302102     -1.852451
  H      -0.612483     -1.752813     -0.816334
  H      -0.142126      1.304363      1.545433
  H      -0.417496      1.982520     -0.087830
  H       2.096483     -1.535796      0.048757
  H       2.319168     -0.082011      1.169723
14
Coordinates from ORCA-job file E -270.640698289056
  C      -1.515774      0.078945      0.199766
  C      -0.611460     -0.658356     -0.829764
  C       0.574999      0.057686     -0.189718
  C      -0.347042      1.061132      0.498225
  C       1.838444     -0.503314      0.286282
  O       1.784805      0.379733     -0.846588
  H      -2.439307      0.518386     -0.185257
  H      -1.752849     -0.551095      1.062429
  H      -0.772016     -0.301181     -1.852776
  H      -0.609939     -1.752563     -0.821023
  H      -0.138860      1.308878      1.543485
  H      -0.421008      1.983129     -0.088636
  H       2.093783     -1.536984      0.051231
  H       2.316224     -0.084297      1.172346
14
Coordinates from ORCA-job file E -270.640702076026
  C      -1.517013      0.081167      0.196973
  C      -0.611264     -0.661128     -0.827852
  C       0.574710      0.058481     -0.190560
  C      -0.346571      1.059944      0.501392
  C       1.839468     -0.501514      0.283795
  O       1.783259      0.382094     -0.849044
  H      -2.436717      0.524176     -0.193427
  H      -1.762025     -0.546867      1.058543
  H      -0.772626     -0.311353     -1.853085
  H      -0.608340     -1.755188     -0.812596
  H      -0.137842      1.301529      1.547931
  H      -0.419501      1.985859     -0.079075
  H       2.095993     -1.534636      0.047854
  H       2.318468     -0.082466      1.169151
14
Coordinates from ORCA-job file E -270.640702205297
  C      -1.516340      0.080349      0.197851
  C      -0.611338     -0.660314     -0.828931
  C       0.574583      0.058523     -0.190480
  C      -0.346728      1.060914      0.500276
  C       1.838921     -0.502312      0.284842
  O       1.784398      0.381201     -0.847704
  H      -2.437877      0.521651     -0.190077
  H      -1.758292     -0.548345      1.059810
  H      -0.773183     -0.308621     -1.853408
  H      -0.608349     -1.754360     -0.816187
  H      -0.137628      1.304954      1.546103
  H      -0.420518      1.985740     -0.081786
  H       2.094855     -1.535640      0.049109
  H       2.317496     -0.083641      1.170582
