20
Coordinates from ORCA-job file E -345.511996649901
  C      -1.795100      0.195100      0.183100
  C      -1.149600     -1.123400     -0.263600
  C       0.356700     -1.024600     -0.640800
  N       1.258300     -1.539000      0.401800
  C       1.941400     -0.244400      0.415700
  C       1.017700      0.356300     -0.634400
  C       0.168000      1.521900     -0.106800
  N      -0.826200      1.055900      0.862700
  H      -2.238000      0.719000     -0.695200
  H      -2.632700     -0.032700      0.878200
  H      -1.301600     -1.892200      0.524600
  H      -1.709500     -1.492900     -1.150200
  H       0.557900     -1.556200     -1.598200
  H       0.759100     -1.640200      1.317100
  H       1.890300      0.251900      1.413000
  H       2.984900     -0.348000      0.045900
  H       1.552000      0.592000     -1.581100
  H       0.834500      2.269000      0.376900
  H      -0.326500      2.035800     -0.962100
  H      -1.341700      1.896700      1.213400
20
Coordinates from ORCA-job file E -345.519823448532
  C      -1.798014      0.194909      0.177639
  C      -1.168060     -1.127669     -0.287439
  C       0.326005     -1.033465     -0.639896
  N       1.248588     -1.530809      0.417504
  C       1.969331     -0.232615      0.436957
  C       1.019165      0.361760     -0.624246
  C       0.167943      1.523740     -0.126618
  N      -0.812880      1.045766      0.850509
  H      -2.238328      0.718785     -0.691844
  H      -2.615830     -0.016134      0.874832
  H      -1.285663     -1.889559      0.493282
  H      -1.731961     -1.494728     -1.153022
  H       0.513725     -1.567724     -1.578041
  H       0.748929     -1.650002      1.290549
  H       1.933874      0.275736      1.407346
  H       3.009515     -0.330939      0.108449
  H       1.519299      0.616859     -1.563550
  H       0.820426      2.264343      0.352877
  H      -0.328972      2.024342     -0.979926
  H      -1.297191      1.847405      1.234638
20
Coordinates from ORCA-job file E -345.520324913517
  C      -1.796163      0.197100      0.182106
  C      -1.173962     -1.123452     -0.302429
  C       0.324654     -1.034452     -0.643209
  N       1.242286     -1.522765      0.426068
  C       1.967782     -0.226308      0.445722
  C       1.026769      0.361098     -0.628667
  C       0.164798      1.520732     -0.142054
  N      -0.795243      1.031997      0.847915
  H      -2.236072      0.730142     -0.681745
  H      -2.610229     -0.009862      0.884398
  H      -1.286092     -1.891719      0.473271
  H      -1.738700     -1.482587     -1.170176
  H       0.516516     -1.581154     -1.573421
  H       0.735825     -1.657404      1.295911
  H       1.923823      0.296319      1.408760
  H       3.014776     -0.327457      0.138923
  H       1.518639      0.622938     -1.570989
  H       0.808143      2.276856      0.324617
  H      -0.348149      1.998369     -0.998482
  H      -1.259503      1.821611      1.283478
20
Coordinates from ORCA-job file E -345.520423690961
  C      -1.794601      0.197501      0.188718
  C      -1.175686     -1.119726     -0.311796
  C       0.325789     -1.035288     -0.644079
  N       1.237467     -1.516558      0.433112
  C       1.962790     -0.220767      0.451124
  C       1.030879      0.359656     -0.635021
  C       0.164248      1.518500     -0.152751
  N      -0.784419      1.026386      0.845114
  H      -2.243580      0.735826     -0.667362
  H      -2.601377     -0.012240      0.898863
  H      -1.293529     -1.898883      0.452621
  H      -1.737448     -1.465569     -1.187183
  H       0.521614     -1.591669     -1.568063
  H       0.728984     -1.658840      1.300059
  H       1.906746      0.311950      1.408437
  H       3.014016     -0.324597      0.158689
  H       1.525401      0.620324     -1.576727
  H       0.803526      2.284832      0.302989
  H      -0.358850      1.983308     -1.010350
  H      -1.232071      1.805855      1.313604
20
Coordinates from ORCA-job file E -345.520450752509
  C      -1.793710      0.195450      0.195680
  C      -1.176122     -1.117313     -0.320390
  C       0.327205     -1.035511     -0.642788
  N       1.231463     -1.511062      0.442193
  C       1.961206     -0.218318      0.453382
  C       1.033299      0.358451     -0.638171
  C       0.164160      1.516567     -0.158742
  N      -0.778927      1.024395      0.843939
  H      -2.255342      0.736661     -0.651804
  H      -2.591076     -0.020710      0.914461
  H      -1.301834     -1.908287      0.430548
  H      -1.733210     -1.447740     -1.204686
  H       0.528147     -1.598232     -1.561903
  H       0.719772     -1.647723      1.308422
  H       1.903649      0.320876      1.406877
  H       3.012802     -0.327944      0.164187
  H       1.530418      0.616561     -1.579155
  H       0.801692      2.287893      0.290922
  H      -0.363726      1.975214     -1.016799
  H      -1.219967      1.800772      1.323826
20
Coordinates from ORCA-job file E -345.520514093521
  C      -1.790936      0.187878      0.214034
  C      -1.177398     -1.111251     -0.345720
  C       0.330966     -1.036568     -0.637092
  N       1.211714     -1.494337      0.472752
  C       1.959767     -0.212947      0.456839
  C       1.038922      0.354978     -0.645504
  C       0.163286      1.510279     -0.171262
  N      -0.765088      1.016697      0.843939
  H      -2.284919      0.738142     -0.608924
  H      -2.562922     -0.047071      0.954258
  H      -1.325491     -1.934507      0.365524
  H      -1.719751     -1.396966     -1.254424
  H       0.549063     -1.617392     -1.541117
  H       0.687800     -1.600781      1.336147
  H       1.910336      0.345113      1.399659
  H       3.009145     -0.344465      0.168227
  H       1.539495      0.607796     -1.586031
  H       0.796425      2.293062      0.264520
  H      -0.376948      1.954709     -1.029248
  H      -1.193564      1.787633      1.343424
20
Coordinates from ORCA-job file E -345.520572480972
  C      -1.787868      0.179437      0.232273
  C      -1.178015     -1.104617     -0.370262
  C       0.334457     -1.037253     -0.631138
  N       1.191597     -1.477925      0.502323
  C       1.958266     -0.208479      0.460234
  C       1.044308      0.351260     -0.652102
  C       0.162221      1.503872     -0.183390
  N      -0.752247      1.009514      0.843813
  H      -2.314414      0.737400     -0.564719
  H      -2.532896     -0.075717      0.993098
  H      -1.348181     -1.957953      0.299420
  H      -1.704463     -1.344781     -1.301174
  H       0.568698     -1.635406     -1.519843
  H       0.654954     -1.550295      1.361595
  H       1.918116      0.367426      1.392496
  H       3.004699     -0.362414      0.171982
  H       1.548564      0.598324     -1.592107
  H       0.790706      2.297722      0.238775
  H      -0.389522      1.934242     -1.041322
  H      -1.169081      1.775642      1.360049
20
Coordinates from ORCA-job file E -345.520586089887
  C      -1.785283      0.170672      0.252007
  C      -1.175194     -1.097650     -0.387770
  C       0.339209     -1.036236     -0.627846
  N       1.178438     -1.473985      0.520290
  C       1.955178     -0.208368      0.466422
  C       1.049216      0.346480     -0.653432
  C       0.161937      1.498566     -0.195802
  N      -0.746198      1.011926      0.842002
  H      -2.352390      0.730500     -0.514362
  H      -2.493127     -0.113340      1.037593
  H      -1.365538     -1.978140      0.238994
  H      -1.685699     -1.291049     -1.337655
  H       0.580969     -1.642321     -1.508681
  H       0.625200     -1.493228      1.371292
  H       1.918442      0.377178      1.392680
  H       2.998223     -0.378980      0.179728
  H       1.563925      0.580825     -1.590577
  H       0.787171      2.301908      0.212473
  H      -0.395914      1.915925     -1.056106
  H      -1.158667      1.779315      1.358749
20
Coordinates from ORCA-job file E -345.520700987676
  C      -1.781773      0.160595      0.266735
  C      -1.176953     -1.090786     -0.413903
  C       0.340838     -1.037783     -0.619226
  N       1.153754     -1.450408      0.555270
  C       1.955814     -0.203868      0.466540
  C       1.053593      0.343350     -0.661117
  C       0.159990      1.491865     -0.204760
  N      -0.732743      0.999449      0.842880
  H      -2.372884      0.727554     -0.476142
  H      -2.468563     -0.138253      1.065403
  H      -1.388266     -1.994046      0.173133
  H      -1.669607     -1.242344     -1.380993
  H       0.601976     -1.664415     -1.480460
  H       0.590278     -1.440096      1.400364
  H       1.937182      0.401131      1.380458
  H       2.994123     -0.401132      0.176744
  H       1.566240      0.577019     -1.599723
  H       0.779551      2.304680      0.193485
  H      -0.409343      1.897227     -1.063429
  H      -1.133306      1.760261      1.378742
20
Coordinates from ORCA-job file E -345.520790493404
  C      -1.778150      0.149773      0.284380
  C      -1.176902     -1.082300     -0.436986
  C       0.343453     -1.040252     -0.611636
  N       1.134356     -1.434098      0.584411
  C       1.955786     -0.201819      0.469422
  C       1.058203      0.339110     -0.665423
  C       0.157807      1.485349     -0.214907
  N      -0.723091      0.993609      0.842531
  H      -2.399235      0.718988     -0.431957
  H      -2.437145     -0.168128      1.098959
  H      -1.411668     -2.006579      0.107128
  H      -1.649471     -1.187715     -1.420396
  H       0.619038     -1.682979     -1.456603
  H       0.558387     -1.387766      1.420239
  H       1.953639      0.417863      1.373537
  H       2.989206     -0.421600      0.177154
  H       1.570395      0.571393     -1.604819
  H       0.771567      2.307723      0.172653
  H      -0.419901      1.877062     -1.074416
  H      -1.116375      1.752364      1.386728
20
Coordinates from ORCA-job file E -345.520286161595
  C      -1.780812      0.147575      0.282840
  C      -1.180526     -1.082104     -0.437752
  C       0.344406     -1.059028     -0.605703
  N       1.151918     -1.439881      0.594050
  C       1.971650     -0.206813      0.464665
  C       1.056665      0.339724     -0.656753
  C       0.154830      1.486927     -0.201485
  N      -0.733230      0.999066      0.847333
  H      -2.386566      0.708095     -0.455851
  H      -2.461365     -0.147610      1.088672
  H      -1.431892     -1.988743      0.130667
  H      -1.644443     -1.196157     -1.427065
  H       0.622955     -1.699137     -1.452892
  H       0.568995     -1.417493      1.428268
  H       2.009655      0.404667      1.374285
  H       3.002073     -0.419824      0.146094
  H       1.533433      0.610380     -1.606834
  H       0.767588      2.300996      0.206601
  H      -0.410922      1.884300     -1.066498
  H      -1.154513      1.775060      1.347357
20
Coordinates from ORCA-job file E -345.520976742410
  C      -1.777378      0.141892      0.293153
  C      -1.176786     -1.078010     -0.449282
  C       0.345367     -1.047067     -0.604419
  N       1.128955     -1.428651      0.604407
  C       1.962096     -0.204049      0.468207
  C       1.059395      0.336057     -0.663237
  C       0.156061      1.481490     -0.213164
  N      -0.723949      0.992911      0.846367
  H      -2.411496      0.709699     -0.413008
  H      -2.424613     -0.184476      1.113913
  H      -1.429631     -2.008343      0.076171
  H      -1.633593     -1.158174     -1.442828
  H       0.629136     -1.696410     -1.441717
  H       0.542331     -1.352701      1.430957
  H       1.987883      0.420683      1.368687
  H       2.988539     -0.438698      0.161735
  H       1.559835      0.578075     -1.607189
  H       0.768263      2.304130      0.176550
  H      -0.420667      1.871034     -1.074266
  H      -1.129850      1.760604      1.368965
20
Coordinates from ORCA-job file E -345.521068352458
  C      -1.772490      0.130614      0.311940
  C      -1.175257     -1.068237     -0.469641
  C       0.347831     -1.048344     -0.597843
  N       1.111436     -1.417435      0.628526
  C       1.960593     -0.203677      0.473285
  C       1.063667      0.331011     -0.665044
  C       0.153537      1.474421     -0.223729
  N      -0.715132      0.989667      0.847485
  H      -2.438156      0.698692     -0.363746
  H      -2.386790     -0.219127      1.148229
  H      -1.450102     -2.016918      0.009432
  H      -1.611172     -1.099881     -1.475138
  H       0.641835     -1.710671     -1.421232
  H       0.513425     -1.297522      1.441672
  H       2.000588      0.432232      1.365402
  H       2.981181     -0.459361      0.165586
  H       1.566463      0.568917     -1.608910
  H       0.760167      2.307160      0.152817
  H      -0.431614      1.848611     -1.085940
  H      -1.120109      1.759849      1.366852
20
Coordinates from ORCA-job file E -345.521115905596
  C      -1.769618      0.122182      0.325591
  C      -1.173752     -1.060598     -0.482100
  C       0.349821     -1.050120     -0.592774
  N       1.102294     -1.412951      0.643702
  C       1.961128     -0.205108      0.476895
  C       1.066298      0.326716     -0.663774
  C       0.152017      1.469209     -0.228905
  N      -0.712966      0.991358      0.849753
  H      -2.459047      0.687978     -0.326880
  H      -2.357457     -0.247475      1.172379
  H      -1.465514     -2.019899     -0.036341
  H      -1.593320     -1.055659     -1.494864
  H       0.649009     -1.719359     -1.408476
  H       0.498034     -1.260186      1.446524
  H       2.013900      0.436759      1.364147
  H       2.976291     -0.475437      0.165636
  H       1.569267      0.562480     -1.608152
  H       0.755822      2.307495      0.139407
  H      -0.436322      1.833653     -1.092937
  H      -1.125984      1.768960      1.351170
20
Coordinates from ORCA-job file E -345.521129731686
  C      -1.766679      0.115604      0.336590
  C      -1.173303     -1.053751     -0.493042
  C       0.350571     -1.052315     -0.588581
  N       1.094732     -1.406755      0.655718
  C       1.960465     -0.204629      0.480303
  C       1.068599      0.323674     -0.664611
  C       0.150653      1.466000     -0.235642
  N      -0.709560      0.992259      0.848530
  H      -2.474681      0.677946     -0.298729
  H      -2.334979     -0.265730      1.191578
  H      -1.479635     -2.019995     -0.072734
  H      -1.579703     -1.021437     -1.510813
  H       0.654060     -1.728206     -1.397327
  H       0.486860     -1.243991      1.453825
  H       2.019503      0.442419      1.363402
  H       2.973749     -0.483233      0.169601
  H       1.571269      0.559026     -1.609419
  H       0.751445      2.309163      0.126491
  H      -0.440275      1.822023     -1.101409
  H      -1.123191      1.771928      1.346268
20
Coordinates from ORCA-job file E -345.521152732930
  C      -1.762517      0.111153      0.348502
  C      -1.173065     -1.046430     -0.499829
  C       0.351323     -1.054918     -0.587751
  N       1.093769     -1.407997      0.658225
  C       1.957113     -0.203446      0.486935
  C       1.070686      0.320646     -0.664180
  C       0.149697      1.464029     -0.244796
  N      -0.706302      0.998203      0.845911
  H      -2.489679      0.667488     -0.270039
  H      -2.309880     -0.280980      1.212370
  H      -1.492999     -2.017000     -0.100296
  H      -1.569838     -0.990108     -1.520465
  H       0.654009     -1.732799     -1.395197
  H       0.485009     -1.252236      1.456807
  H       2.010546      0.445282      1.369194
  H       2.972758     -0.480000      0.182079
  H       1.576263      0.554274     -1.607989
  H       0.748663      2.311784      0.109612
  H      -0.442772      1.810779     -1.113218
  H      -1.122884      1.782277      1.334123
20
Coordinates from ORCA-job file E -345.521199138927
  C      -1.754124      0.102262      0.371773
  C      -1.171969     -1.031287     -0.512495
  C       0.352522     -1.058557     -0.586096
  N       1.090399     -1.410299      0.662500
  C       1.949526     -0.201572      0.499448
  C       1.074534      0.314857     -0.663961
  C       0.148100      1.460725     -0.263865
  N      -0.700962      1.010466      0.838447
  H      -2.520383      0.644026     -0.211052
  H      -2.255957     -0.312298      1.252917
  H      -1.518165     -2.009135     -0.155352
  H      -1.549912     -0.927667     -1.536782
  H       0.653061     -1.739865     -1.391603
  H       0.480076     -1.268410      1.462226
  H       1.987411      0.450360      1.379999
  H       2.970665     -0.473198      0.208658
  H       1.588975      0.541696     -1.604620
  H       0.743015      2.317811      0.074485
  H      -0.446553      1.788993     -1.137905
  H      -1.120358      1.801092      1.313277
20
Coordinates from ORCA-job file E -345.521255035944
  C      -1.744281      0.093845      0.394603
  C      -1.170791     -1.016379     -0.522178
  C       0.353306     -1.061406     -0.586700
  N       1.088018     -1.415084      0.661866
  C       1.939283     -0.199545      0.512747
  C       1.077896      0.309673     -0.664073
  C       0.147434      1.459187     -0.284580
  N      -0.696900      1.025388      0.827587
  H      -2.549880      0.616549     -0.150841
  H      -2.196667     -0.342389      1.292255
  H      -1.541600     -1.998583     -0.204457
  H      -1.533458     -0.868543     -1.546797
  H       0.649651     -1.743616     -1.393087
  H       0.476998     -1.294099      1.464267
  H       1.952789      0.453614      1.392806
  H       2.968105     -0.461096      0.240431
  H       1.605466      0.526411     -1.599621
  H       0.739119      2.324514      0.037934
  H      -0.447293      1.770454     -1.164696
  H      -1.117294      1.821103      1.292534
20
Coordinates from ORCA-job file E -345.521299446681
  C      -1.733169      0.083982      0.417546
  C      -1.169405     -1.000811     -0.533263
  C       0.353693     -1.063807     -0.587245
  N       1.081994     -1.417830      0.663960
  C       1.928747     -0.197896      0.525780
  C       1.081618      0.304635     -0.664474
  C       0.146392      1.456865     -0.305214
  N      -0.692719      1.038522      0.816558
  H      -2.576805      0.586430     -0.087410
  H      -2.133851     -0.373866      1.329191
  H      -1.564078     -1.986036     -0.256841
  H      -1.516311     -0.808086     -1.556118
  H       0.647421     -1.748734     -1.392367
  H       0.468170     -1.309544      1.465902
  H       1.921875      0.457350      1.404128
  H       2.963476     -0.453163      0.270625
  H       1.621769      0.512335     -1.594764
  H       0.733895      2.330574      0.001864
  H      -0.448775      1.750691     -1.190912
  H      -1.114039      1.838389      1.273055
20
Coordinates from ORCA-job file E -345.521228354772
  C      -1.719063      0.074360      0.439095
  C      -1.167726     -0.991047     -0.533288
  C       0.353352     -1.061943     -0.600237
  N       1.074078     -1.426514      0.649107
  C       1.910191     -0.198166      0.540624
  C       1.086517      0.304413     -0.666581
  C       0.153057      1.464781     -0.329012
  N      -0.696386      1.064256      0.790751
  H      -2.606646      0.541300     -0.022063
  H      -2.053801     -0.403311      1.367549
  H      -1.571029     -1.977538     -0.274444
  H      -1.524200     -0.774327     -1.548420
  H       0.640773     -1.741137     -1.412316
  H       0.454216     -1.344616      1.449729
  H       1.859984      0.451777      1.420852
  H       2.955418     -0.436937      0.315271
  H       1.653281      0.495784     -1.583859
  H       0.741810      2.339276     -0.026906
  H      -0.429752      1.754655     -1.223828
  H      -1.114172      1.864932      1.247975
20
Coordinates from ORCA-job file E -345.521311009410
  C      -1.710716      0.064312      0.456649
  C      -1.167223     -0.973640     -0.551276
  C       0.353474     -1.067655     -0.590516
  N       1.067842     -1.422206      0.667155
  C       1.909011     -0.196373      0.548130
  C       1.088170      0.296825     -0.664770
  C       0.145993      1.454339     -0.340061
  N      -0.690519      1.064251      0.793618
  H      -2.618845      0.523008      0.028884
  H      -2.012976     -0.430481      1.387490
  H      -1.600467     -1.959382     -0.343285
  H      -1.490820     -0.705407     -1.565243
  H       0.643175     -1.757289     -1.393131
  H       0.446515     -1.332458      1.465404
  H       1.868808      0.461547      1.423137
  H       2.952646     -0.442722      0.322484
  H       1.650805      0.490728     -1.584503
  H       0.727224      2.339620     -0.055141
  H      -0.444906      1.721928     -1.236562
  H      -1.117292      1.871055      1.231536
20
Coordinates from ORCA-job file E -345.521324995749
  C      -1.724093      0.074593      0.434893
  C      -1.168804     -0.989590     -0.541830
  C       0.353775     -1.065898     -0.589215
  N       1.075702     -1.419744      0.665993
  C       1.921335     -0.197908      0.535406
  C       1.085012      0.301388     -0.663955
  C       0.146995      1.455990     -0.318927
  N      -0.693455      1.051817      0.806862
  H      -2.597369      0.558241     -0.036265
  H      -2.082362     -0.400155      1.356047
  H      -1.578395     -1.976279     -0.293477
  H      -1.506660     -0.764619     -1.561291
  H       0.646463     -1.753487     -1.392433
  H       0.457589     -1.318146      1.465362
  H       1.904891      0.458517      1.412684
  H       2.959054     -0.451346      0.290657
  H       1.632804      0.506619     -1.590431
  H       0.732934      2.333319     -0.019146
  H      -0.444706      1.740340     -1.209844
  H      -1.120812      1.856347      1.248910
20
Coordinates from ORCA-job file E -345.521332317566
  C      -1.717447      0.069561      0.445012
  C      -1.168293     -0.984009     -0.543930
  C       0.353495     -1.065754     -0.593084
  N       1.071608     -1.422450      0.662543
  C       1.914165     -0.197984      0.541806
  C       1.086904      0.300524     -0.664303
  C       0.148820      1.457931     -0.328894
  N      -0.694383      1.061701      0.797399
  H      -2.609281      0.538464     -0.005471
  H      -2.046693     -0.414466      1.372316
  H      -1.584374     -1.970740     -0.306953
  H      -1.506387     -0.744699     -1.560215
  H       0.644509     -1.752206     -1.397859
  H       0.450994     -1.329683      1.461089
  H       1.883495      0.457370      1.419290
  H       2.955369     -0.446683      0.307620
  H       1.644009      0.500354     -1.586229
  H       0.734718      2.336372     -0.032381
  H      -0.438649      1.738867     -1.223550
  H      -1.122677      1.867530      1.235793
20
Coordinates from ORCA-job file E -345.521333506966
  C      -1.715130      0.067914      0.448510
  C      -1.168092     -0.981271     -0.546174
  C       0.353427     -1.066111     -0.592991
  N       1.070203     -1.422681      0.663448
  C       1.912504     -0.197750      0.543848
  C       1.087367      0.299706     -0.664182
  C       0.148320      1.457204     -0.331877
  N      -0.693315      1.063102      0.796359
  H      -2.611708      0.533896      0.004543
  H      -2.036774     -0.419137      1.376885
  H      -1.587764     -1.967942     -0.315356
  H      -1.503507     -0.735298     -1.561805
  H       0.644363     -1.753183     -1.397286
  H       0.448931     -1.330901      1.461566
  H       1.879947      0.458064      1.420914
  H       2.954255     -0.446110      0.311771
  H       1.645775      0.498883     -1.585484
  H       0.733324      2.337130     -0.037987
  H      -0.439669      1.734855     -1.227218
  H      -1.122555      1.869630      1.232515
20
Coordinates from ORCA-job file E -345.521333750859
  C      -1.714689      0.067469      0.449322
  C      -1.168076     -0.980687     -0.546697
  C       0.353429     -1.066216     -0.593009
  N       1.069825     -1.422753      0.663716
  C       1.912400     -0.197947      0.544207
  C       1.087530      0.299560     -0.664000
  C       0.148316      1.457133     -0.332232
  N      -0.693655      1.063980      0.796091
  H      -2.612582      0.532472      0.007045
  H      -2.034305     -0.420396      1.377999
  H      -1.588305     -1.967388     -0.316952
  H      -1.503039     -0.733343     -1.562149
  H       0.644451     -1.753426     -1.397154
  H       0.448351     -1.331263      1.461701
  H       1.880145      0.457924      1.421237
  H       2.954117     -0.446601      0.312208
  H       1.645926      0.499042     -1.585259
  H       0.733258      2.337186     -0.038582
  H      -0.439351      1.734283     -1.227936
  H      -1.123849      1.870969      1.230445
