20
Coordinates from ORCA-job file
  C   -1.71468905358046      0.06746939860509      0.44932224926195
  C   -1.16807550837595     -0.98068725104396     -0.54669746646710
  C   0.35342937607914     -1.06621587144568     -0.59300942581633
  N   1.06982476880177     -1.42275280007898      0.66371634420652
  C   1.91240028579398     -0.19794669008753      0.54420687394310
  C   1.08753040108869      0.29956049952875     -0.66400016540032
  C   0.14831644491745      1.45713316251634     -0.33223192734550
  N   -0.69365499351611      1.06397990829216      0.79609138113908
  H   -2.61258150348450      0.53247248482222      0.00704518361087
  H   -2.03430517058535     -0.42039585478934      1.37799873900783
  H   -1.58830462467444     -1.96738810265200     -0.31695182196226
  H   -1.50303862603010     -0.73334304346141     -1.56214899983774
  H   0.64445067054109     -1.75342623923349     -1.39715434424399
  H   0.44835074112407     -1.33126326114633      1.46170139370860
  H   1.88014510900632      0.45792432972562      1.42123668458261
  H   2.95411742724656     -0.44660117738161      0.31220777804143
  H   1.64592627446749      0.49904217127765     -1.58525864903157
  H   0.73325822930548      2.33718649650270     -0.03858240480150
  H   -0.43935085395316      1.73428304856542     -1.22793599512986
  H   -1.12384939417199      1.87096879148437      1.23044457253418
