17
Coordinates from ORCA-job file
  C   -1.97510738738239      0.35521573950278      0.46211128970006
  C   -1.09496292367208      0.52162768315698     -0.80666976667092
  C   0.15011623815956      0.09142371452165     -0.00132830733764
  C   -0.71422324811948     -0.05982108189550      1.26864033788867
  C   1.11983225038801     -0.99998161990195     -0.48660353138696
  C   2.19448590450696      0.09372271546186     -0.37642151322184
  O   1.22144901534985      1.05942218125406      0.07533185640139
  H   -2.74127936990789     -0.42163415424074      0.38500321614072
  H   -2.45119642288812      1.27704362295110      0.80772801235608
  H   -1.34469860359568     -0.14354341364841     -1.64065424485686
  H   -1.00913927127453      1.54634207130906     -1.18056312588811
  H   -0.73537734038353     -1.07436899645869      1.68179452980509
  H   -0.41523392345017      0.63995377562810      2.05474569458248
  H   0.92544882725408     -1.36852539578646     -1.49778974736007
  H   1.23714534628200     -1.84537449760609      0.19723101170701
  H   2.97296335447044     -0.07507908578986      0.37697595604216
  H   2.65967755426295      0.40337674154211     -1.31973166790124
