17
Coordinates from ORCA-job file E -309.974432998679
  C      -1.901600      0.351800      0.447900
  C      -1.050600      0.513700     -0.815100
  C       0.163600      0.111500      0.001200
  C      -0.670300     -0.067600      1.256200
  C       1.071100     -0.990400     -0.474600
  C       2.116300      0.105800     -0.358900
  O       1.183100      1.070300      0.083100
  H      -2.649100     -0.466300      0.355500
  H      -2.330800      1.316300      0.797300
  H      -1.318600     -0.226200     -1.600500
  H      -1.007300      1.566500     -1.169800
  H      -0.731400     -1.123800      1.598100
  H      -0.415000      0.661300      2.056100
  H       0.889800     -1.303600     -1.525400
  H       1.218600     -1.806200      0.265600
  H       2.878100     -0.104300      0.424100
  H       2.554000      0.391000     -1.341000
17
Coordinates from ORCA-job file E -309.986102448774
  C      -1.954883      0.358047      0.459369
  C      -1.079543      0.517522     -0.813720
  C       0.161471      0.107627      0.000624
  C      -0.697384     -0.065937      1.266665
  C       1.102669     -0.998290     -0.482775
  C       2.173003      0.099850     -0.370729
  O       1.216900      1.070833      0.077523
  H      -2.713120     -0.427015      0.378422
  H      -2.396836      1.297920      0.804085
  H      -1.336440     -0.193266     -1.607425
  H      -1.024545      1.547430     -1.180702
  H      -0.742556     -1.100250      1.626424
  H      -0.429108      0.638333      2.060578
  H       0.917520     -1.329807     -1.508410
  H       1.236477     -1.817866      0.228813
  H       2.940827     -0.093824      0.389162
  H       2.625448      0.388493     -1.328104
17
Coordinates from ORCA-job file E -309.988217857655
  C      -1.973780      0.353455      0.461333
  C      -1.092739      0.522865     -0.807012
  C       0.153820      0.100366      0.000656
  C      -0.712085     -0.058904      1.268964
  C       1.115857     -0.997186     -0.484916
  C       2.194081      0.093430     -0.376632
  O       1.226285      1.062375      0.075022
  H      -2.739561     -0.423652      0.383938
  H      -2.445334      1.277331      0.806671
  H      -1.337255     -0.153444     -1.632807
  H      -1.017980      1.547024     -1.184208
  H      -0.732245     -1.078511      1.668005
  H      -0.422678      0.637503      2.061338
  H       0.919843     -1.359641     -1.497491
  H       1.232900     -1.838130      0.203685
  H       2.972166     -0.081659      0.375498
  H       2.658606      0.396579     -1.322244
17
Coordinates from ORCA-job file E -309.988279702852
  C      -1.975109      0.355139      0.462083
  C      -1.094826      0.522050     -0.806558
  C       0.150580      0.092316     -0.001158
  C      -0.714109     -0.059427      1.268727
  C       1.119516     -0.999804     -0.486452
  C       2.194651      0.093682     -0.376480
  O       1.222021      1.059800      0.075274
  H      -2.741099     -0.421843      0.384867
  H      -2.451694      1.276707      0.807725
  H      -1.343213     -0.144061     -1.640150
  H      -1.010285      1.546539     -1.181373
  H      -0.734259     -1.074486      1.680590
  H      -0.416081      0.639515      2.055941
  H       0.924482     -1.368400     -1.497481
  H       1.236204     -1.845185      0.197483
  H       2.973247     -0.075544      0.376710
  H       2.659873      0.402804     -1.319950
17
Coordinates from ORCA-job file E -309.988280509154
  C      -1.975107      0.355216      0.462111
  C      -1.094963      0.521628     -0.806670
  C       0.150116      0.091424     -0.001328
  C      -0.714223     -0.059821      1.268640
  C       1.119832     -0.999982     -0.486604
  C       2.194486      0.093723     -0.376422
  O       1.221449      1.059422      0.075332
  H      -2.741279     -0.421634      0.385003
  H      -2.451196      1.277044      0.807728
  H      -1.344699     -0.143543     -1.640654
  H      -1.009139      1.546342     -1.180563
  H      -0.735377     -1.074369      1.681795
  H      -0.415234      0.639954      2.054746
  H       0.925449     -1.368525     -1.497790
  H       1.237145     -1.845374      0.197231
  H       2.972963     -0.075079      0.376976
  H       2.659678      0.403377     -1.319732
