20
Coordinates from ORCA-job file
  C   0.82739628810697     -0.95373297926681      0.92463025044585
  C   1.36458202063167      0.46721147399043      0.60557097793493
  C   0.66475355041810      0.83087891680072     -0.72965860851553
  C   -0.70354292352861      1.48771700061785     -0.48102569570698
  N   -1.57094016138575      0.68173576539138      0.38353815271412
  C   -1.54667301434762     -0.73845218060881      0.02060702788141
  C   -0.12628022824235     -1.25764666084265     -0.25974466642683
  N   0.39424604426179     -0.46171588390728     -1.38798586448358
  H   1.64247718830629     -1.68518516410605      0.95451439103653
  H   0.31318390332581     -1.00274961589014      1.89194802922540
  H   2.45227011730786      0.45693026548302      0.47486514461605
  H   1.14091897546256      1.19027354883580      1.39907771363465
  H   1.27491930562422      1.46950096330151     -1.37778359656681
  H   -0.58058381427569      2.47650364603734     -0.02395207401497
  H   -1.20163140003579      1.61949761526695     -1.44939931342860
  H   -1.28998540507285      0.79353597853799      1.35202325859090
  H   -2.01500250413952     -1.31088500539811      0.82975456655036
  H   -2.14729181425128     -0.87702799426855     -0.88672121278943
  H   -0.16116037752556     -2.31993060137683     -0.52525845274676
  H   1.26834424935973     -0.86635908859776     -1.71500002795070
