20
Coordinates from ORCA-job file E -345.550947935105
  C       0.821100     -0.940200      0.910100
  C       1.350200      0.456700      0.595800
  C       0.662600      0.815300     -0.727900
  C      -0.699300      1.508500     -0.484100
  N      -1.601400      0.686000      0.353000
  C      -1.557300     -0.757000      0.025600
  C      -0.117700     -1.245000     -0.264300
  N       0.383100     -0.456000     -1.381800
  H       1.659600     -1.670600      0.921100
  H       0.299700     -0.975300      1.891700
  H       2.452200      0.421900      0.450200
  H       1.116400      1.181100      1.406500
  H       1.312600      1.455900     -1.364100
  H      -0.535800      2.496000      0.000500
  H      -1.190800      1.699300     -1.462600
  H      -1.339000      0.812800      1.358300
  H      -1.990400     -1.344500      0.864700
  H      -2.191500     -0.942700     -0.868100
  H      -0.121100     -2.329400     -0.512300
  H       1.286800     -0.872700     -1.712300
20
Coordinates from ORCA-job file E -345.556389083938
  C       0.827812     -0.952793      0.922859
  C       1.364776      0.465662      0.603686
  C       0.664959      0.828222     -0.730914
  C      -0.698876      1.492142     -0.481427
  N      -1.581996      0.680889      0.362956
  C      -1.546139     -0.745034      0.022057
  C      -0.124463     -1.256525     -0.261818
  N       0.391476     -0.460927     -1.389354
  H       1.643769     -1.682637      0.949815
  H       0.312901     -0.997987      1.889450
  H       2.451504      0.451123      0.469634
  H       1.139870      1.187088      1.397686
  H       1.281815      1.465039     -1.373856
  H      -0.563805      2.468231     -0.001761
  H      -1.187215      1.656602     -1.449655
  H      -1.332521      0.805151      1.335365
  H      -1.994526     -1.308453      0.848250
  H      -2.159530     -0.911090     -0.871868
  H      -0.151720     -2.319926     -0.522186
  H       1.261911     -0.864678     -1.718917
20
Coordinates from ORCA-job file E -345.556511849371
  C       0.828604     -0.954096      0.924046
  C       1.365580      0.466571      0.604976
  C       0.665264      0.830368     -0.729982
  C      -0.701871      1.488940     -0.481258
  N      -1.574137      0.681110      0.375667
  C      -1.546256     -0.740486      0.020952
  C      -0.125618     -1.257859     -0.260036
  N       0.393449     -0.461610     -1.388444
  H       1.643501     -1.685606      0.953416
  H       0.314759     -1.002950      1.891373
  H       2.453067      0.456151      0.473593
  H       1.142071      1.189528      1.398416
  H       1.275947      1.468540     -1.377838
  H      -0.575910      2.472917     -0.014884
  H      -1.195520      1.632071     -1.450187
  H      -1.311367      0.800608      1.348460
  H      -2.008318     -1.308087      0.836984
  H      -2.150476     -0.889375     -0.882214
  H      -0.159726     -2.320099     -0.525238
  H       1.266958     -0.866535     -1.717801
20
Coordinates from ORCA-job file E -345.556525412247
  C       0.828197     -0.954130      0.924481
  C       1.365221      0.466979      0.605492
  C       0.665169      0.830885     -0.729581
  C      -0.702988      1.488007     -0.480994
  N      -1.571205      0.681511      0.381846
  C      -1.546438     -0.738903      0.020867
  C      -0.126007     -1.257937     -0.259536
  N       0.394043     -0.461707     -1.387951
  H       1.643198     -1.685774      0.954147
  H       0.314354     -1.003504      1.892009
  H       2.452977      0.457162      0.474810
  H       1.141551      1.190068      1.399019
  H       1.274906      1.469412     -1.378298
  H      -0.579971      2.476002     -0.022096
  H      -1.199977      1.621515     -1.449750
  H      -1.297896      0.796567      1.352041
  H      -2.014101     -1.310064      0.831371
  H      -2.147303     -0.879418     -0.886060
  H      -0.161369     -2.320120     -0.525614
  H       1.267640     -0.866451     -1.716204
20
Coordinates from ORCA-job file E -345.556527221731
  C       0.827681     -0.953890      0.924594
  C       1.364791      0.467143      0.605585
  C       0.664896      0.830904     -0.729577
  C      -0.703410      1.487764     -0.480969
  N      -1.570904      0.681718      0.383334
  C      -1.546595     -0.738489      0.020741
  C      -0.126205     -1.257735     -0.259616
  N       0.394187     -0.461704     -1.387909
  H       1.642757     -1.685374      0.954303
  H       0.313657     -1.003068      1.892009
  H       2.452498      0.457051      0.474919
  H       1.141070      1.190162      1.399122
  H       1.274886      1.469486     -1.377928
  H      -0.580648      2.476590     -0.023913
  H      -1.201340      1.619401     -1.449465
  H      -1.292001      0.794419      1.352317
  H      -2.015117     -1.310777      0.829887
  H      -2.147032     -0.877133     -0.886721
  H      -0.161309     -2.319967     -0.525363
  H       1.268140     -0.866401     -1.715350
20
Coordinates from ORCA-job file E -345.556527390572
  C       0.827396     -0.953733      0.924630
  C       1.364582      0.467211      0.605571
  C       0.664754      0.830879     -0.729659
  C      -0.703543      1.487717     -0.481026
  N      -1.570940      0.681736      0.383538
  C      -1.546673     -0.738452      0.020607
  C      -0.126280     -1.257647     -0.259745
  N       0.394246     -0.461716     -1.387986
  H       1.642477     -1.685185      0.954514
  H       0.313184     -1.002750      1.891948
  H       2.452270      0.456930      0.474865
  H       1.140919      1.190274      1.399078
  H       1.274919      1.469501     -1.377784
  H      -0.580584      2.476504     -0.023952
  H      -1.201631      1.619498     -1.449399
  H      -1.289985      0.793536      1.352023
  H      -2.015003     -1.310885      0.829755
  H      -2.147292     -0.877028     -0.886721
  H      -0.161160     -2.319931     -0.525258
  H       1.268344     -0.866359     -1.715000
