20
Coordinates from ORCA-job file E -345.542623699298
  C      -1.466500     -0.981300     -0.251500
  N      -1.937600      0.247800      0.378300
  C      -1.172800      1.318000     -0.253300
  C       0.181000      0.739700     -0.676300
  C       1.293300      1.003200      0.341900
  N       1.387800     -0.176300      1.194300
  C       0.999700     -1.295600      0.343700
  C      -0.010900     -0.762600     -0.675100
  H      -2.085200     -1.174200     -1.155400
  H      -1.597000     -1.850500      0.430200
  H      -1.663100      0.213500      1.389000
  H      -1.080500      2.193200      0.426900
  H      -1.723300      1.658800     -1.157600
  H       0.471900      1.118000     -1.682100
  H       2.254800      1.155100     -0.201000
  H       1.106700      1.905200      0.962500
  H       2.381700     -0.303000      1.498700
  H       0.592500     -2.120700      0.965700
  H       1.892000     -1.685100     -0.198700
  H       0.175400     -1.203400     -1.680200
20
Coordinates from ORCA-job file E -345.549986118025
  C      -1.476766     -0.983433     -0.252399
  N      -1.919812      0.245524      0.410014
  C      -1.182533      1.322592     -0.254473
  C       0.192758      0.756215     -0.683637
  C       1.320550      1.019285      0.329210
  N       1.363551     -0.173302      1.189144
  C       1.021915     -1.317941      0.330826
  C      -0.003616     -0.781436     -0.682374
  H      -2.104521     -1.156359     -1.137420
  H      -1.607033     -1.841784      0.414971
  H      -1.636515      0.210424      1.383181
  H      -1.092764      2.187273      0.411449
  H      -1.746691      1.646294     -1.140039
  H       0.474491      1.132740     -1.672211
  H       2.276015      1.176486     -0.201019
  H       1.127934      1.913132      0.934736
  H       2.300954     -0.292882      1.551755
  H       0.610807     -2.133745      0.937669
  H       1.906986     -1.711042     -0.199054
  H       0.174190     -1.218242     -1.670330
20
Coordinates from ORCA-job file E -345.551463344461
  C      -1.476862     -0.980747     -0.251514
  N      -1.896752      0.242293      0.436422
  C      -1.183315      1.319840     -0.252788
  C       0.193391      0.760058     -0.692296
  C       1.326358      1.014733      0.317700
  N       1.317593     -0.167000      1.193309
  C       1.028287     -1.314757      0.320181
  C      -0.003822     -0.785289     -0.691102
  H      -2.115695     -1.131099     -1.131764
  H      -1.608958     -1.846814      0.404555
  H      -1.581332      0.202833      1.401107
  H      -1.093217      2.191962      0.402415
  H      -1.763877      1.625111     -1.133310
  H       0.471417      1.138563     -1.680635
  H       2.287309      1.143562     -0.210067
  H       1.148539      1.919567      0.910173
  H       2.226564     -0.283008      1.628889
  H       0.628220     -2.144432      0.914320
  H       1.925758     -1.682525     -0.206839
  H       0.170295     -1.223050     -1.678756
20
Coordinates from ORCA-job file E -345.552552358170
  C      -1.474680     -0.978124     -0.248871
  N      -1.875994      0.239352      0.460507
  C      -1.181730      1.316649     -0.249199
  C       0.193082      0.762048     -0.701829
  C       1.327952      1.009191      0.308206
  N       1.275369     -0.161114      1.194749
  C       1.030965     -1.309634      0.311753
  C      -0.004439     -0.787241     -0.700531
  H      -2.124423     -1.107022     -1.124668
  H      -1.608211     -1.853246      0.395247
  H      -1.520580      0.194276      1.411367
  H      -1.090355      2.197174      0.394971
  H      -1.778471      1.604907     -1.124753
  H       0.466879      1.144087     -1.690272
  H       2.294398      1.104647     -0.217494
  H       1.169517      1.926537      0.887068
  H       2.147197     -0.272245      1.701900
  H       0.645906     -2.155717      0.892789
  H       1.942142     -1.647327     -0.212781
  H       0.165377     -1.227401     -1.688157
20
Coordinates from ORCA-job file E -345.553261251611
  C      -1.472326     -0.975000     -0.245470
  N      -1.858031      0.236850      0.482699
  C      -1.180243      1.312970     -0.245392
  C       0.191806      0.762875     -0.710254
  C       1.326978      1.002238      0.301480
  N       1.233472     -0.155525      1.197830
  C       1.031519     -1.302528      0.305597
  C      -0.005716     -0.787708     -0.708854
  H      -2.130725     -1.083973     -1.117621
  H      -1.607809     -1.858942      0.386278
  H      -1.458693      0.185844      1.416373
  H      -1.088248      2.202020      0.387073
  H      -1.790660      1.584873     -1.116853
  H       0.462181      1.150581     -1.697486
  H       2.298024      1.056847     -0.222814
  H       1.194111      1.933066      0.864777
  H       2.069460     -0.261947      1.763531
  H       0.667243     -2.167697      0.871433
  H       1.957493     -1.602499     -0.217201
  H       0.160066     -1.232545     -1.695124
20
Coordinates from ORCA-job file E -345.553510598993
  C      -1.470993     -0.969749     -0.240438
  N      -1.838115      0.236279      0.507685
  C      -1.180321      1.308563     -0.244900
  C       0.191031      0.763572     -0.717131
  C       1.323558      0.995987      0.300213
  N       1.197761     -0.153344      1.201574
  C       1.031842     -1.297011      0.299978
  C      -0.007404     -0.788191     -0.715788
  H      -2.137485     -1.054929     -1.109197
  H      -1.611443     -1.863448      0.376573
  H      -1.388991      0.180432      1.418941
  H      -1.091955      2.211066      0.368980
  H      -1.804152      1.555134     -1.114535
  H       0.460824      1.159058     -1.701537
  H       2.297780      1.013609     -0.221517
  H       1.214001      1.937709      0.849986
  H       2.000380     -0.255848      1.814057
  H       0.690299     -2.181656      0.849317
  H       1.970493     -1.557276     -0.222415
  H       0.152790     -1.240157     -1.699846
20
Coordinates from ORCA-job file E -345.553514844595
  C      -1.471848     -0.969522     -0.240925
  N      -1.840002      0.236301      0.507574
  C      -1.181305      1.308576     -0.244922
  C       0.190756      0.763741     -0.715720
  C       1.323660      0.996575      0.301267
  N       1.202757     -0.153852      1.202142
  C       1.031338     -1.297662      0.301367
  C      -0.007611     -0.788013     -0.714620
  H      -2.136943     -1.052971     -1.110936
  H      -1.613856     -1.864188      0.374311
  H      -1.389430      0.180249      1.418094
  H      -1.094769      2.212742      0.366753
  H      -1.804044      1.552506     -1.116098
  H       0.461220      1.160184     -1.699532
  H       2.297170      1.016034     -0.221682
  H       1.213557      1.937846      0.851707
  H       2.008577     -0.256559      1.810236
  H       0.689102     -2.181616      0.851378
  H       1.968792     -1.559864     -0.222108
  H       0.152778     -1.240708     -1.698285
20
Coordinates from ORCA-job file E -345.553514720324
  C      -1.471950     -0.969862     -0.240609
  N      -1.841350      0.236463      0.506697
  C      -1.181354      1.308958     -0.244587
  C       0.190491      0.763698     -0.715360
  C       1.323781      0.995757      0.301173
  N       1.200994     -0.153650      1.203240
  C       1.031585     -1.296942      0.301241
  C      -0.007853     -0.787795     -0.714316
  H      -2.136566     -1.054618     -1.110898
  H      -1.613638     -1.864203      0.375164
  H      -1.391868      0.180588      1.417674
  H      -1.094859      2.212928      0.367373
  H      -1.803209      1.553697     -1.116207
  H       0.461100      1.160578     -1.698960
  H       2.297365      1.012680     -0.221922
  H       1.215736      1.937718      0.850771
  H       2.008198     -0.256500      1.809431
  H       0.691100     -2.182115      0.850316
  H       1.969726     -1.556753     -0.222382
  H       0.152473     -1.240827     -1.697838
