20
Coordinates from ORCA-job file
  C   -1.47195004546654     -0.96986182934799     -0.24060909229413
  N   -1.84135040838938      0.23646300153352      0.50669704568579
  C   -1.18135431100831      1.30895759015463     -0.24458715613579
  C   0.19049098687281      0.76369757462119     -0.71536034833913
  C   1.32378086752929      0.99575694760103      0.30117276944057
  N   1.20099444875566     -0.15364994135360      1.20323958181431
  C   1.03158486705270     -1.29694166411827      0.30124143181341
  C   -0.00785326667376     -0.78779504748348     -0.71431628338275
  H   -2.13656583327429     -1.05461761570993     -1.11089844068534
  H   -1.61363847740054     -1.86420274313281      0.37516390062492
  H   -1.39186819930785      0.18058752399108      1.41767407017984
  H   -1.09485932053066      2.21292755315597      0.36737316493290
  H   -1.80320899581822      1.55369708802603     -1.11620688926248
  H   0.46110011895748      1.16057755631474     -1.69896035534633
  H   2.29736475039731      1.01268004692638     -0.22192241188026
  H   1.21573567893262      1.93771824657122      0.85077116164037
  H   2.00819795018983     -0.25650021619500      1.80943137605483
  H   0.69109954777329     -2.18211475597961      0.85031577626856
  H   1.96972617780118     -1.55675255677651     -0.22238150911214
  H   0.15247346360739     -1.24082675879861     -1.69783779201716
