25
Coordinates from ORCA-job file
  C   3.55116412605306      0.97217119960972      1.58184062350310
  C   2.32150531024339      0.33875193853375      0.97371428348087
  C   2.11704869129736      0.35600025883687     -0.41150146646808
  C   1.00035892479244     -0.24727511364612     -0.98338609634270
  C   0.06116048684565     -0.87774731047011     -0.16624102681128
  S   -1.43447766115552     -1.61095084703048     -0.90127353593333
  O   -1.91566979833244     -2.59098979433950      0.08816513848877
  O   -1.02382089503529     -2.04772392818609     -2.24667941571739
  N   -2.59205001651837     -0.43087820573553     -1.06320269230900
  C   -3.23118394222249      0.35725447470256      0.05034810612999
  C   -3.47024943059475      1.53740828020483     -0.90919348698700
  C   -2.49348683439218      0.83724672207660     -1.87128355175801
  C   0.24591859648716     -0.90769121940321      1.21431818685121
  C   1.37040447401783     -0.30312226543111      1.77372445003606
  H   3.38265758542122      1.24508234149005      2.62687601267961
  H   3.84296836076107      1.87600846027899      1.03955216825974
  H   4.40587818202727      0.28535591467923      1.55504368109464
  H   2.84185522760053      0.84991297858044     -1.05288197859431
  H   0.85536809443162     -0.24430581757930     -2.05672637374327
  H   -4.09707103743204     -0.15797470353479      0.48850073990155
  H   -2.51118068656032      0.56437230303649      0.86777148726833
  H   -1.46398187181078      1.24925007725916     -1.86162424894042
  H   -2.78767014199593      0.69407796180594     -2.92034475733105
  H   -0.48425843700774     -1.41350497677070      1.83416658503401
  H   1.50881269307926     -0.33072872896769      2.85091716820796
