25
Coordinates from ORCA-job file E -990.636334311207
  C       3.477500      1.018300      1.574100
  C       2.254000      0.406600      0.958700
  C       2.100100      0.383200     -0.435400
  C       0.977700     -0.219600     -1.010600
  C      -0.004500     -0.807700     -0.200200
  S      -1.419100     -1.583800     -0.930300
  O      -1.842600     -2.735000     -0.061300
  O      -1.029600     -2.136500     -2.272800
  N      -2.785000     -0.505800     -1.140700
  C      -3.069600      0.249700      0.082700
  C      -2.641500      1.566900     -0.527100
  C      -2.385900      0.752900     -1.777000
  C       0.168000     -0.815600      1.191700
  C       1.290200     -0.213100      1.767900
  H       3.249700      1.416400      2.585900
  H       3.850900      1.858700      0.950800
  H       4.272600      0.248500      1.658100
  H       2.849800      0.829400     -1.077200
  H       0.878800     -0.230200     -2.088400
  H      -4.158400      0.242800      0.304000
  H      -2.455600     -0.029300      0.963500
  H      -1.327400      0.801100     -2.105400
  H      -3.095400      1.025200     -2.587600
  H      -0.562800     -1.291300      1.832900
  H       1.408100     -0.231800      2.844300
25
Coordinates from ORCA-job file E -990.654696498053
  C       3.458233      1.030608      1.570561
  C       2.233957      0.402610      0.950313
  C       2.076238      0.372367     -0.441902
  C       0.965959     -0.238356     -1.019736
  C      -0.007332     -0.829010     -0.207668
  S      -1.417394     -1.631723     -0.943589
  O      -1.846192     -2.723893     -0.022483
  O      -1.010958     -2.109922     -2.297108
  N      -2.730221     -0.515438     -1.123203
  C      -3.044485      0.268316      0.118451
  C      -2.611673      1.599830     -0.506259
  C      -2.348785      0.781795     -1.776072
  C       0.155693     -0.832881      1.181296
  C       1.268540     -0.220487      1.752595
  H       3.234970      1.425042      2.568345
  H       3.827875      1.859917      0.956855
  H       4.260766      0.285861      1.664794
  H       2.823911      0.825915     -1.083724
  H       0.864591     -0.261585     -2.097542
  H      -4.128400      0.225735      0.331882
  H      -2.467840     -0.018910      1.012363
  H      -1.310249      0.835507     -2.140148
  H      -3.054077      1.018612     -2.593808
  H      -0.575838     -1.318277      1.815140
  H       1.382710     -0.231632      2.831246
25
Coordinates from ORCA-job file E -990.663138623498
  C       3.457957      1.031170      1.569800
  C       2.233427      0.395003      0.947908
  C       2.063751      0.371027     -0.440917
  C       0.959071     -0.243250     -1.020839
  C      -0.004027     -0.838133     -0.206398
  S      -1.428102     -1.652798     -0.945467
  O      -1.863800     -2.674933      0.024285
  O      -1.007280     -2.076080     -2.294557
  N      -2.679027     -0.523856     -1.109825
  C      -3.043308      0.288215      0.131287
  C      -2.631783      1.627254     -0.513179
  C      -2.332159      0.803556     -1.782175
  C       0.158554     -0.848478      1.178075
  C       1.270224     -0.234491      1.743905
  H       3.240321      1.415075      2.567872
  H       3.822655      1.862130      0.963727
  H       4.272059      0.304522      1.662953
  H       2.806108      0.838095     -1.081794
  H       0.845696     -0.269371     -2.097243
  H      -4.122331      0.180236      0.328015
  H      -2.500708     -0.002350      1.041501
  H      -1.306383      0.864283     -2.171299
  H      -3.026336      0.975255     -2.620805
  H      -0.572783     -1.345833      1.802256
  H       1.388204     -0.246250      2.823515
25
Coordinates from ORCA-job file E -990.665184253163
  C       3.479238      1.023008      1.570811
  C       2.255858      0.381883      0.953564
  C       2.067193      0.378305     -0.432423
  C       0.960574     -0.235906     -1.010001
  C       0.010597     -0.847073     -0.192999
  S      -1.438215     -1.649476     -0.931453
  O      -1.886406     -2.635061      0.060502
  O      -1.008817     -2.061817     -2.273456
  N      -2.648867     -0.520323     -1.104031
  C      -3.079847      0.311283      0.114302
  C      -2.710946      1.647685     -0.554483
  C      -2.348017      0.817791     -1.799472
  C       0.184263     -0.869920      1.189178
  C       1.299801     -0.256657      1.750167
  H       3.269312      1.390810      2.577444
  H       3.831182      1.865286      0.971270
  H       4.306108      0.308062      1.648979
  H       2.797707      0.865123     -1.073114
  H       0.831912     -0.253122     -2.084723
  H      -4.154117      0.134163      0.290373
  H      -2.557534      0.041728      1.044032
  H      -1.321798      0.899218     -2.186960
  H      -3.023888      0.917805     -2.665217
  H      -0.542355     -1.379150      1.809122
  H       1.427063     -0.273642      2.829190
25
Coordinates from ORCA-job file E -990.666041233282
  C       3.491017      1.016173      1.580538
  C       2.272730      0.372051      0.960359
  C       2.092038      0.362524     -0.426878
  C       0.985641     -0.250475     -1.007915
  C       0.029768     -0.858021     -0.194340
  S      -1.437647     -1.637285     -0.940349
  O      -1.885080     -2.634084      0.041512
  O      -1.009584     -2.029699     -2.288970
  N      -2.632780     -0.510442     -1.090770
  C      -3.089249      0.324034      0.117323
  C      -2.794209      1.655460     -0.581787
  C      -2.394920      0.829092     -1.809184
  C       0.191810     -0.867505      1.189732
  C       1.306947     -0.254488      1.755138
  H       3.275426      1.389396      2.585115
  H       3.847288      1.855516      0.977449
  H       4.319370      0.302612      1.668218
  H       2.827173      0.846245     -1.064521
  H       0.862139     -0.274104     -2.083108
  H      -4.149811      0.086547      0.313314
  H      -2.543235      0.086889      1.044638
  H      -1.372914      0.941510     -2.204963
  H      -3.070878      0.872470     -2.681316
  H      -0.546272     -1.365024      1.806025
  H       1.425231     -0.259389      2.835339
25
Coordinates from ORCA-job file E -990.666627819160
  C       3.512393      1.008364      1.576590
  C       2.291936      0.362893      0.966493
  C       2.084675      0.384085     -0.417572
  C       0.973141     -0.229293     -0.990263
  C       0.042061     -0.870845     -0.173693
  S      -1.446735     -1.628905     -0.911675
  O      -1.912255     -2.606954      0.086107
  O      -1.016557     -2.061506     -2.251318
  N      -2.611490     -0.490466     -1.086695
  C      -3.141078      0.352477      0.081361
  C      -2.907627      1.663094     -0.657910
  C      -2.402623      0.834958     -1.831716
  C       0.228605     -0.903466      1.207399
  C       1.348535     -0.291083      1.766597
  H       3.313595      1.350953      2.596233
  H       3.842738      1.869476      0.988291
  H       4.353828      0.305518      1.626574
  H       2.800751      0.892820     -1.056986
  H       0.825875     -0.227289     -2.063119
  H      -4.188972      0.054605      0.270754
  H      -2.596004      0.174018      1.024815
  H      -1.363194      0.981989     -2.173759
  H      -3.026176      0.814665     -2.744690
  H      -0.493666     -1.422556      1.825144
  H       1.488247     -0.317551      2.843639
25
Coordinates from ORCA-job file E -990.667128970903
  C       3.517902      1.000030      1.588068
  C       2.298319      0.357119      0.973726
  C       2.098107      0.377358     -0.411672
  C       0.987491     -0.234703     -0.987863
  C       0.051665     -0.874476     -0.175133
  S      -1.441312     -1.620180     -0.917899
  O      -1.902980     -2.615571      0.068518
  O      -1.014938     -2.048072     -2.263486
  N      -2.600147     -0.475812     -1.072713
  C      -3.137748      0.369085      0.084957
  C      -3.007839      1.658238     -0.707094
  C      -2.448687      0.832888     -1.851950
  C       0.232257     -0.905246      1.206402
  C       1.351117     -0.294998      1.770921
  H       3.317978      1.338017      2.609255
  H       3.848638      1.864210      1.004076
  H       4.358916      0.296371      1.635012
  H       2.818723      0.882689     -1.048344
  H       0.845713     -0.233244     -2.061525
  H      -4.157785      0.020338      0.330453
  H      -2.540930      0.260023      1.008797
  H      -1.410167      1.024084     -2.177723
  H      -3.055080      0.762980     -2.773975
  H      -0.495989     -1.419585      1.821475
  H       1.486774     -0.321543      2.848315
25
Coordinates from ORCA-job file E -990.667703334187
  C       3.525151      0.993893      1.586865
  C       2.302435      0.354130      0.973026
  C       2.104009      0.371755     -0.412695
  C       0.992431     -0.238954     -0.987896
  C       0.054954     -0.875396     -0.174611
  S      -1.436533     -1.618596     -0.915108
  O      -1.900356     -2.615436      0.071123
  O      -1.015118     -2.058429     -2.260271
  N      -2.587351     -0.460203     -1.066537
  C      -3.161009      0.365980      0.080400
  C      -3.114324      1.642519     -0.743217
  C      -2.459872      0.839772     -1.854781
  C       0.234846     -0.904351      1.206398
  C       1.353977     -0.294809      1.771047
  H       3.328763      1.327393      2.609870
  H       3.854256      1.860665      1.006302
  H       4.364520      0.288474      1.626761
  H       2.827231      0.872015     -1.050289
  H       0.852865     -0.238480     -2.061908
  H      -4.155073     -0.027439      0.356563
  H      -2.535925      0.321825      0.991789
  H      -1.413548      1.083896     -2.115585
  H      -3.010760      0.746501     -2.807478
  H      -0.495205     -1.415106      1.822469
  H       1.489635     -0.321620      2.848363
25
Coordinates from ORCA-job file E -990.668301923118
  C       3.525876      0.991470      1.584040
  C       2.301239      0.351679      0.970370
  C       2.103697      0.366098     -0.415255
  C       0.992677     -0.245200     -0.990130
  C       0.054126     -0.878431     -0.175880
  S      -1.432390     -1.622815     -0.913237
  O      -1.900616     -2.617060      0.071994
  O      -1.017927     -2.064724     -2.258787
  N      -2.577185     -0.446969     -1.060311
  C      -3.173897      0.360311      0.080182
  C      -3.201537      1.626189     -0.775046
  C      -2.459425      0.842735     -1.856027
  C       0.233322     -0.905761      1.204792
  C       1.351876     -0.295008      1.768550
  H       3.331779      1.320824      2.608150
  H       3.851866      1.860768      1.006558
  H       4.364922      0.286337      1.618070
  H       2.828275      0.863042     -1.054128
  H       0.855027     -0.245334     -2.064405
  H      -4.141192     -0.064395      0.392964
  H      -2.520396      0.379116      0.972459
  H      -1.409192      1.132660     -2.045835
  H      -2.951075      0.740180     -2.836958
  H      -0.496460     -1.414822      1.822390
  H       1.486610     -0.320890      2.846081
25
Coordinates from ORCA-job file E -990.668725571455
  C       3.531079      0.986336      1.583205
  C       2.305025      0.347467      0.970325
  C       2.104475      0.364063     -0.414761
  C       0.993146     -0.247117     -0.989436
  C       0.055943     -0.881779     -0.174632
  S      -1.431479     -1.622733     -0.909430
  O      -1.905570     -2.610797      0.076588
  O      -1.022519     -2.062433     -2.255366
  N      -2.570399     -0.435097     -1.054742
  C      -3.188872      0.359883      0.074703
  C      -3.295966      1.603252     -0.819589
  C      -2.466109      0.841580     -1.862014
  C       0.236695     -0.909823      1.205975
  C       1.356332     -0.299861      1.768408
  H       3.340926      1.307041      2.610541
  H       3.851695      1.860878      1.011068
  H       4.372019      0.283356      1.607523
  H       2.827840      0.862113     -1.054370
  H       0.854096     -0.244847     -2.063515
  H      -4.123920     -0.099641      0.428370
  H      -2.511230      0.447675      0.945095
  H      -1.419260      1.177845     -1.985484
  H      -2.894863      0.720294     -2.868171
  H      -0.491379     -1.420132      1.824460
  H       1.492294     -0.327526      2.845850
25
Coordinates from ORCA-job file E -990.668991420135
  C       3.544647      0.978934      1.580106
  C       2.316749      0.342767      0.969108
  C       2.117268      0.353291     -0.416290
  C       1.003782     -0.255527     -0.989737
  C       0.062209     -0.882100     -0.173205
  S      -1.430289     -1.615731     -0.906928
  O      -1.909751     -2.599684      0.078648
  O      -1.024994     -2.050355     -2.254040
  N      -2.569089     -0.423731     -1.052502
  C      -3.224442      0.348106      0.063988
  C      -3.406811      1.566105     -0.861884
  C      -2.476747      0.847980     -1.857618
  C       0.241365     -0.903474      1.208251
  C       1.363250     -0.295647      1.768792
  H       3.357273      1.297565      2.608694
  H       3.865075      1.854216      1.008727
  H       4.385346      0.275309      1.601200
  H       2.843426      0.845183     -1.057653
  H       0.865669     -0.257557     -2.063943
  H      -4.124874     -0.154426      0.445129
  H      -2.538081      0.502329      0.919325
  H      -1.441193      1.237868     -1.901735
  H      -2.827094      0.713690     -2.891121
  H      -0.489853     -1.407005      1.828596
  H       1.497157     -0.318107      2.846693
25
Coordinates from ORCA-job file E -990.669057430719
  C       3.553921      0.973698      1.580490
  C       2.325428      0.338959      0.970696
  C       2.125066      0.349025     -0.414770
  C       1.009640     -0.256985     -0.987319
  C       0.067545     -0.882626     -0.170278
  S      -1.430325     -1.608950     -0.903930
  O      -1.914519     -2.590478      0.081431
  O      -1.025958     -2.041240     -2.251742
  N      -2.572119     -0.417736     -1.052498
  C      -3.243137      0.346781      0.055188
  C      -3.473073      1.540064     -0.894837
  C      -2.490536      0.848215     -1.861409
  C       0.248169     -0.904704      1.211334
  C       1.370938     -0.297702      1.771026
  H       3.369706      1.286414      2.611609
  H       3.871198      1.852512      1.012422
  H       4.396545      0.271892      1.595257
  H       2.851561      0.839692     -1.056752
  H       0.869241     -0.258098     -2.061294
  H      -4.118788     -0.179736      0.459839
  H      -2.549887      0.545263      0.896739
  H      -1.465568      1.270002     -1.864786
  H      -2.796417      0.701929     -2.907007
  H      -0.483772     -1.406582      1.832280
  H       1.505141     -0.319609      2.848910
25
Coordinates from ORCA-job file E -990.669071564840
  C       3.556643      0.971711      1.582073
  C       2.327577      0.338030      0.973035
  C       2.123459      0.353766     -0.411946
  C       1.007239     -0.250916     -0.984017
  C       0.067985     -0.881236     -0.167098
  S      -1.431232     -1.606671     -0.900576
  O      -1.917113     -2.585930      0.086419
  O      -1.025744     -2.040449     -2.247721
  N      -2.577369     -0.418851     -1.054672
  C      -3.244068      0.351943      0.051002
  C      -3.479659      1.538514     -0.905755
  C      -2.496611      0.843159     -1.869269
  C       0.252373     -0.909283      1.213996
  C       1.376020     -0.303534      1.773190
  H       3.375982      1.276546      2.616258
  H       3.869297      1.855433      1.018892
  H       4.401671      0.272497      1.588555
  H       2.847787      0.847848     -1.053760
  H       0.863274     -0.247907     -2.057516
  H      -4.115509     -0.174972      0.464152
  H      -2.546212      0.557985      0.887206
  H      -1.471985      1.266432     -1.872396
  H      -2.799656      0.690437     -2.914730
  H      -0.477417     -1.414653      1.834684
  H       1.513269     -0.329898      2.850596
25
Coordinates from ORCA-job file E -990.669083717683
  C       3.558427      0.969964      1.582874
  C       2.328642      0.337356      0.974825
  C       2.121221      0.358145     -0.409762
  C       1.003986     -0.244825     -0.981123
  C       0.067239     -0.878982     -0.164113
  S      -1.432446     -1.605076     -0.897780
  O      -1.918235     -2.582778      0.091651
  O      -1.024583     -2.041521     -2.244040
  N      -2.584316     -0.422246     -1.058366
  C      -3.244065      0.356122      0.046947
  C      -3.480748      1.537714     -0.913499
  C      -2.500254      0.838731     -1.875013
  C       0.254646     -0.911973      1.216332
  C       1.379588     -0.308038      1.775018
  H       3.382331      1.265006      2.620759
  H       3.865152      1.859806      1.025895
  H       4.406395      0.274168      1.578870
  H       2.843904      0.854770     -1.051421
  H       0.856659     -0.238673     -2.054149
  H      -4.112984     -0.169110      0.467646
  H      -2.540922      0.565621      0.878185
  H      -1.474745      1.260474     -1.876959
  H      -2.800570      0.682865     -2.920791
  H      -0.474086     -1.419343      1.836675
  H       1.519763     -0.338179      2.851939
25
Coordinates from ORCA-job file E -990.669093255465
  C       3.557526      0.969729      1.582699
  C       2.327365      0.337603      0.974927
  C       2.119950      0.358627     -0.409746
  C       1.002450     -0.243674     -0.981003
  C       0.065430     -0.877286     -0.163804
  S      -1.432981     -1.605722     -0.898128
  O      -1.917069     -2.583970      0.091960
  O      -1.023308     -2.042252     -2.244132
  N      -2.589123     -0.425832     -1.061064
  C      -3.241676      0.356453      0.046719
  C      -3.477505      1.537769     -0.913166
  C      -2.499662      0.837191     -1.875144
  C       0.252761     -0.910657      1.216479
  C       1.378116     -0.307317      1.775150
  H       3.383973      1.258845      2.622664
  H       3.860631      1.863274      1.029640
  H       4.407183      0.276060      1.572392
  H       2.842978      0.854846     -1.051328
  H       0.854745     -0.237807     -2.053971
  H      -4.109837     -0.165679      0.472573
  H      -2.533406      0.564965      0.873958
  H      -1.472739      1.255694     -1.873836
  H      -2.798002      0.684429     -2.921851
  H      -0.476416     -1.417627      1.836596
  H       1.518614     -0.337659      2.852016
25
Coordinates from ORCA-job file E -990.669101869958
  C       3.554605      0.970249      1.582344
  C       2.324296      0.338190      0.974509
  C       2.118181      0.357874     -0.410447
  C       1.000832     -0.244352     -0.981956
  C       0.062727     -0.876330     -0.164696
  S      -1.433671     -1.608074     -0.899868
  O      -1.915269     -2.587844      0.090155
  O      -1.022324     -2.044317     -2.245652
  N      -2.592812     -0.429823     -1.063275
  C      -3.236023      0.356762      0.048225
  C      -3.474118      1.536721     -0.911610
  C      -2.497404      0.836291     -1.873591
  C       0.248766     -0.908403      1.215608
  C       1.374042     -0.305021      1.774632
  H       3.383863      1.251594      2.624840
  H       3.852715      1.868679      1.034518
  H       4.406465      0.279532      1.563952
  H       2.842235      0.852849     -1.051840
  H       0.853971     -0.239837     -2.055037
  H      -4.102187     -0.161373      0.482588
  H      -2.520045      0.565285      0.868887
  H      -1.469104      1.251496     -1.866788
  H      -2.792459      0.688905     -2.921885
  H      -0.481177     -1.414633      1.835393
  H       1.513895     -0.334419      2.851594
25
Coordinates from ORCA-job file E -990.669103994626
  C       3.552422      0.971344      1.581964
  C       2.322409      0.338639      0.973936
  C       2.117429      0.356721     -0.411204
  C       1.000455     -0.246055     -0.982961
  C       0.061537     -0.876853     -0.165729
  S      -1.434080     -1.609893     -0.900975
  O      -1.915060     -2.590095      0.088657
  O      -1.022882     -2.046118     -2.246601
  N      -2.592913     -0.430894     -1.063523
  C      -3.232908      0.356649      0.049690
  C      -3.471258      1.537156     -0.909510
  C      -2.494874      0.836810     -1.871862
  C       0.246656     -0.907539      1.214729
  C       1.371501     -0.303520      1.773991
  H       3.382695      1.248759      2.625636
  H       3.847594      1.872310      1.036741
  H       4.405593      0.282423      1.559637
  H       2.842070      0.850893     -1.052566
  H       0.854733     -0.242656     -2.056196
  H      -4.098966     -0.159391      0.486587
  H      -2.514105      0.563923      0.868153
  H      -1.465731      1.249785     -1.862847
  H      -2.789205      0.692708     -2.920759
  H      -0.483560     -1.413369      1.834510
  H       1.510447     -0.331735      2.851102
25
Coordinates from ORCA-job file E -990.669103933616
  C       3.551164      0.972171      1.581841
  C       2.321505      0.338752      0.973714
  C       2.117049      0.356000     -0.411501
  C       1.000359     -0.247275     -0.983386
  C       0.061160     -0.877747     -0.166241
  S      -1.434478     -1.610951     -0.901274
  O      -1.915670     -2.590990      0.088165
  O      -1.023821     -2.047724     -2.246679
  N      -2.592050     -0.430878     -1.063203
  C      -3.231184      0.357254      0.050348
  C      -3.470249      1.537408     -0.909193
  C      -2.493487      0.837247     -1.871284
  C       0.245919     -0.907691      1.214318
  C       1.370404     -0.303122      1.773724
  H       3.382658      1.245082      2.626876
  H       3.842968      1.876008      1.039552
  H       4.405878      0.285356      1.555044
  H       2.841855      0.849913     -1.052882
  H       0.855368     -0.244306     -2.056726
  H      -4.097071     -0.157975      0.488501
  H      -2.511181      0.564372      0.867771
  H      -1.463982      1.249250     -1.861624
  H      -2.787670      0.694078     -2.920345
  H      -0.484258     -1.413505      1.834167
  H       1.508813     -0.330729      2.850917
