25
Coordinates from ORCA-job file
  C   3.41196604220277      1.03532087394917      1.55413854990317
  C   2.21388301287426      0.36360257610511      0.94104510156519
  C   2.02402477274826      0.36730554591040     -0.44910217312045
  C   0.93285187551521     -0.27453151464625     -1.02759506358490
  C   0.01249112960281     -0.91979979804412     -0.19731789257935
  S   -1.42270244227077     -1.68503545387674     -0.90563312429048
  O   -1.96626975442251     -2.62141188043065      0.06652450417007
  O   -1.09767310022794     -2.10244251763091     -2.25995217324181
  N   -2.55827647662528     -0.48090758424162     -1.06092565456325
  C   -3.04089611499425      0.33388232224558      0.06776487781899
  C   -3.08892420858891      1.57147565283549     -0.77523476656030
  C   -2.33119571427362      0.77715408989364     -1.79356988986044
  C   0.17870783482881     -0.94511794019769      1.18746793245430
  C   1.28061116821764     -0.30285774066975      1.74583066391086
  H   3.23049818181677      1.27962850284374      2.60865602918404
  H   3.66992926019486      1.95505067292367      1.01239336113270
  H   4.28764128644582      0.36913734437310      1.50916414823340
  H   2.74723521845292      0.87803055391685     -1.08855379774668
  H   0.80048031830492     -0.28864026564655     -2.11120384421451
  H   -3.96061730829540     -0.00361063475613      0.56958038934895
  H   -2.27158514254651      0.52675107713838      0.84991160839970
  H   -1.28386323224566      1.15249375567554     -1.73656539623356
  H   -2.64709624801272      0.81074865898898     -2.84739257643950
  H   -0.54143679738909     -1.47508918445294      1.81265359246185
  H   1.42021643868763     -0.32113711220630      2.82851559385202
