25
Coordinates from ORCA-job file E -989.987687850708
  C       3.477500      1.018300      1.574100
  C       2.254000      0.406600      0.958700
  C       2.100100      0.383200     -0.435400
  C       0.977700     -0.219600     -1.010600
  C      -0.004500     -0.807700     -0.200200
  S      -1.419100     -1.583800     -0.930300
  O      -1.842600     -2.735000     -0.061300
  O      -1.029600     -2.136500     -2.272800
  N      -2.785000     -0.505800     -1.140700
  C      -3.069600      0.249700      0.082700
  C      -2.641500      1.566900     -0.527100
  C      -2.385900      0.752900     -1.777000
  C       0.168000     -0.815600      1.191700
  C       1.290200     -0.213100      1.767900
  H       3.249700      1.416400      2.585900
  H       3.850900      1.858700      0.950800
  H       4.272600      0.248500      1.658100
  H       2.849800      0.829400     -1.077200
  H       0.878800     -0.230200     -2.088400
  H      -4.158400      0.242800      0.304000
  H      -2.455600     -0.029300      0.963500
  H      -1.327400      0.801100     -2.105400
  H      -3.095400      1.025200     -2.587600
  H      -0.562800     -1.291300      1.832900
  H       1.408100     -0.231800      2.844300
25
Coordinates from ORCA-job file E -990.006542768327
  C       3.435065      1.030631      1.566043
  C       2.217491      0.403005      0.945300
  C       2.061140      0.379563     -0.448583
  C       0.952885     -0.232149     -1.027930
  C      -0.013126     -0.825936     -0.211008
  S      -1.404194     -1.636468     -0.938664
  O      -1.855952     -2.705699     -0.018977
  O      -1.027108     -2.100004     -2.294051
  N      -2.708221     -0.533070     -1.117337
  C      -3.002378      0.256826      0.107749
  C      -2.601744      1.571077     -0.518629
  C      -2.330232      0.754350     -1.759151
  C       0.141504     -0.833137      1.177891
  C       1.252810     -0.220707      1.749724
  H       3.207400      1.419741      2.568295
  H       3.804787      1.861886      0.949751
  H       4.234611      0.278757      1.656440
  H       2.813109      0.836906     -1.092337
  H       0.852344     -0.256138     -2.114649
  H      -4.081730      0.247378      0.344949
  H      -2.405411      0.006786      1.002959
  H      -1.285718      0.835939     -2.108431
  H      -3.033023      1.023356     -2.568475
  H      -0.593769     -1.327348      1.815953
  H       1.369460     -0.235543      2.833767
25
Coordinates from ORCA-job file E -990.013772265529
  C       3.421669      1.036666      1.561596
  C       2.208220      0.397977      0.940171
  C       2.034582      0.389961     -0.451368
  C       0.935842     -0.233927     -1.033473
  C      -0.011335     -0.841815     -0.207848
  S      -1.402472     -1.666695     -0.925951
  O      -1.893020     -2.637181      0.038167
  O      -1.040979     -2.075146     -2.273101
  N      -2.639640     -0.551511     -1.102481
  C      -2.985144      0.268986      0.101442
  C      -2.620520      1.570880     -0.546287
  C      -2.296669      0.751705     -1.759069
  C       0.146915     -0.866463      1.177713
  C       1.255504     -0.246094      1.741365
  H       3.199981      1.401680      2.571705
  H       3.779943      1.876935      0.955153
  H       4.235346      0.300535      1.638912
  H       2.776160      0.870765     -1.093676
  H       0.821477     -0.255662     -2.119939
  H      -4.064766      0.237798      0.330899
  H      -2.422909      0.056738      1.026235
  H      -1.260283      0.875004     -2.116161
  H      -2.985256      0.995529     -2.587161
  H      -0.578043     -1.386065      1.808217
  H       1.385396     -0.270601      2.825540
25
Coordinates from ORCA-job file E -990.014846954162
  C       3.424216      1.036132      1.569891
  C       2.216387      0.387431      0.949232
  C       2.028880      0.398377     -0.440195
  C       0.932930     -0.231036     -1.023649
  C      -0.000804     -0.862334     -0.199007
  S      -1.406631     -1.673877     -0.917628
  O      -1.909997     -2.631983      0.050043
  O      -1.047379     -2.067247     -2.266846
  N      -2.621201     -0.541564     -1.089464
  C      -2.973603      0.302746      0.093028
  C      -2.677228      1.591260     -0.605162
  C      -2.320673      0.748344     -1.787062
  C       0.167237     -0.901304      1.185832
  C       1.273223     -0.272328      1.748780
  H       3.205635      1.382850      2.587936
  H       3.768435      1.888478      0.970480
  H       4.250857      0.312006      1.633283
  H       2.759368      0.899364     -1.079512
  H       0.811292     -0.244085     -2.108650
  H      -4.045750      0.237832      0.353283
  H      -2.391935      0.137807      1.017250
  H      -1.291570      0.895193     -2.158261
  H      -3.011673      0.944605     -2.627171
  H      -0.550318     -1.434186      1.812305
  H       1.410300     -0.302480      2.831862
25
Coordinates from ORCA-job file E -990.015726995774
  C       3.433773      1.035436      1.567185
  C       2.227586      0.378807      0.954308
  C       2.015483      0.414414     -0.431127
  C       0.919768     -0.221266     -1.009643
  C       0.010306     -0.885527     -0.183129
  S      -1.415352     -1.679233     -0.896149
  O      -1.941446     -2.614274      0.085908
  O      -1.056422     -2.090479     -2.242437
  N      -2.593099     -0.517700     -1.082277
  C      -3.000448      0.332927      0.069077
  C      -2.770786      1.608794     -0.669111
  C      -2.317611      0.754104     -1.804533
  C       0.197721     -0.941472      1.199003
  C       1.305706     -0.307886      1.756001
  H       3.229405      1.350960      2.598840
  H       3.752708      1.907367      0.980922
  H       4.277200      0.327557      1.598637
  H       2.727907      0.941117     -1.069683
  H       0.781682     -0.220348     -2.092176
  H      -4.067560      0.216198      0.336921
  H      -2.421416      0.222867      1.005448
  H      -1.280494      0.935644     -2.142148
  H      -2.968011      0.895202     -2.688622
  H      -0.507247     -1.492288      1.823340
  H       1.460647     -0.350922      2.836046
25
Coordinates from ORCA-job file E -990.016395260562
  C       3.452065      1.022272      1.580095
  C       2.245022      0.369358      0.966466
  C       2.026171      0.419138     -0.417854
  C       0.929886     -0.214056     -0.997652
  C       0.025334     -0.887774     -0.173068
  S      -1.410449     -1.666804     -0.886446
  O      -1.941295     -2.601283      0.096489
  O      -1.057343     -2.084367     -2.234794
  N      -2.574798     -0.498071     -1.066792
  C      -3.018605      0.361155      0.054834
  C      -2.894208      1.614282     -0.744286
  C      -2.368319      0.748223     -1.838082
  C       0.219296     -0.957750      1.206806
  C       1.329954     -0.329738      1.765114
  H       3.257194      1.311826      2.621371
  H       3.758498      1.908790      1.008861
  H       4.303411      0.322695      1.586907
  H       2.734265      0.956281     -1.052250
  H       0.788566     -0.207316     -2.079723
  H      -4.063835      0.177727      0.368674
  H      -2.409797      0.336491      0.979756
  H      -1.338852      0.984075     -2.166975
  H      -2.999146      0.813633     -2.745408
  H      -0.485373     -1.515030      1.825151
  H       1.492357     -0.383757      2.843406
25
Coordinates from ORCA-job file E -990.016908921972
  C       3.456125      1.017803      1.583760
  C       2.251768      0.360980      0.968949
  C       2.034826      0.410425     -0.416186
  C       0.938732     -0.222097     -0.996128
  C       0.036650     -0.898516     -0.171396
  S      -1.407085     -1.659481     -0.882511
  O      -1.944704     -2.593868      0.097858
  O      -1.067321     -2.083258     -2.233520
  N      -2.550627     -0.477756     -1.052830
  C      -3.032695      0.371881      0.051733
  C      -2.984062      1.610650     -0.782479
  C      -2.387755      0.752197     -1.849353
  C       0.228117     -0.967660      1.208093
  C       1.337435     -0.339066      1.767481
  H       3.264852      1.291889      2.629789
  H       3.750113      1.914442      1.021840
  H       4.315282      0.328008      1.575481
  H       2.741784      0.951111     -1.048827
  H       0.793328     -0.209802     -2.077871
  H      -4.053940      0.130734      0.401753
  H      -2.399778      0.417379      0.960572
  H      -1.359321      1.040537     -2.141444
  H      -2.980059      0.767323     -2.784079
  H      -0.480953     -1.521984      1.824041
  H       1.499289     -0.391869      2.845874
25
Coordinates from ORCA-job file E -990.017453228929
  C       3.452437      1.022383      1.575817
  C       2.253098      0.357617      0.958272
  C       2.062574      0.369627     -0.431855
  C       0.968748     -0.265256     -1.012734
  C       0.046754     -0.910288     -0.185084
  S      -1.399451     -1.654670     -0.897771
  O      -1.938657     -2.600023      0.070636
  O      -1.076223     -2.069961     -2.255453
  N      -2.527910     -0.460477     -1.043515
  C      -3.062126      0.341972      0.066263
  C      -3.053665      1.596290     -0.753926
  C      -2.384589      0.781771     -1.818880
  C       0.213587     -0.944638      1.198696
  C       1.318474     -0.310761      1.760304
  H       3.250248      1.313781      2.614863
  H       3.751747      1.910701      1.003650
  H       4.310980      0.332274      1.584970
  H       2.786288      0.884981     -1.066745
  H       0.836745     -0.273517     -2.096409
  H      -4.064051      0.042440      0.422432
  H      -2.418795      0.424421      0.966065
  H      -1.353050      1.125902     -2.032310
  H      -2.919298      0.791513     -2.786372
  H      -0.513813     -1.472069      1.817092
  H       1.459949     -0.334012      2.842594
25
Coordinates from ORCA-job file E -990.017854821250
  C       3.463074      1.016934      1.563048
  C       2.256932      0.357341      0.951118
  C       2.069013      0.358070     -0.439339
  C       0.971209     -0.273983     -1.015862
  C       0.045907     -0.908922     -0.184198
  S      -1.396540     -1.654046     -0.894007
  O      -1.941009     -2.597401      0.072640
  O      -1.077622     -2.076364     -2.249670
  N      -2.517087     -0.452776     -1.043690
  C      -3.109327      0.318492      0.056113
  C      -3.129381      1.576601     -0.765332
  C      -2.369435      0.797534     -1.802487
  C       0.209245     -0.929773      1.201023
  C       1.316094     -0.295597      1.758555
  H       3.269491      1.304105      2.604551
  H       3.756369      1.909510      0.994579
  H       4.320327      0.325700      1.558575
  H       2.799679      0.857516     -1.079248
  H       0.837389     -0.286283     -2.099303
  H      -4.092833     -0.031476      0.411876
  H      -2.462415      0.455393      0.947815
  H      -1.336081      1.189395     -1.902773
  H      -2.819761      0.801582     -2.809945
  H      -0.518524     -1.450815      1.825145
  H       1.455285     -0.310739      2.841414
25
Coordinates from ORCA-job file E -990.018175306751
  C       3.467949      1.007915      1.561998
  C       2.255638      0.355937      0.952697
  C       2.061666      0.364919     -0.436559
  C       0.961699     -0.264700     -1.012272
  C       0.039762     -0.905087     -0.180915
  S      -1.396522     -1.657519     -0.890260
  O      -1.943678     -2.598158      0.075973
  O      -1.075437     -2.080601     -2.243706
  N      -2.517714     -0.454316     -1.043760
  C      -3.117384      0.321484      0.048328
  C      -3.190772      1.556726     -0.807731
  C      -2.375865      0.788744     -1.814636
  C       0.207547     -0.930745      1.204262
  C       1.316784     -0.299310      1.760406
  H       3.287698      1.272757      2.611682
  H       3.746895      1.915280      1.009984
  H       4.327345      0.320528      1.528018
  H       2.790731      0.864219     -1.078473
  H       0.822865     -0.270249     -2.095037
  H      -4.067419     -0.060046      0.454557
  H      -2.432724      0.538375      0.896732
  H      -1.351567      1.219248     -1.829425
  H      -2.762521      0.771981     -2.845931
  H      -0.513790     -1.456749      1.831843
  H       1.458813     -0.320632      2.842826
25
Coordinates from ORCA-job file E -990.018384436002
  C       3.458225      1.011895      1.559228
  C       2.246881      0.356621      0.952029
  C       2.043034      0.376994     -0.435401
  C       0.944071     -0.255721     -1.009873
  C       0.030249     -0.908395     -0.178795
  S      -1.405038     -1.668089     -0.885657
  O      -1.955147     -2.599665      0.086536
  O      -1.078074     -2.093784     -2.235965
  N      -2.530027     -0.464102     -1.050257
  C      -3.104358      0.332805      0.043503
  C      -3.175679      1.558419     -0.823679
  C      -2.361565      0.778537     -1.819350
  C       0.208239     -0.945874      1.204686
  C       1.317361     -0.312538      1.759006
  H       3.286012      1.258461      2.614702
  H       3.721614      1.930862      1.018995
  H       4.323444      0.333360      1.505244
  H       2.762066      0.889148     -1.078535
  H       0.799567     -0.254016     -2.091960
  H      -4.045693     -0.037688      0.478301
  H      -2.392382      0.568634      0.864986
  H      -1.333568      1.201052     -1.792484
  H      -2.719481      0.765254     -2.860135
  H      -0.504672     -1.479751      1.835003
  H       1.464920     -0.342420      2.840471
25
Coordinates from ORCA-job file E -990.018628644095
  C       3.438567      1.023860      1.551349
  C       2.232616      0.360968      0.943635
  C       2.031726      0.373609     -0.444385
  C       0.935715     -0.264173     -1.018746
  C       0.019260     -0.912923     -0.186854
  S      -1.416845     -1.679576     -0.892936
  O      -1.966409     -2.604944      0.085006
  O      -1.083623     -2.102294     -2.242587
  N      -2.550283     -0.478071     -1.063186
  C      -3.086917      0.326709      0.048054
  C      -3.138331      1.560417     -0.801462
  C      -2.332785      0.780940     -1.796962
  C       0.194761     -0.944110      1.196396
  C       1.302227     -0.307162      1.750293
  H       3.263780      1.269880      2.606666
  H       3.698878      1.942897      1.009628
  H       4.307190      0.349231      1.500397
  H       2.748592      0.887321     -1.088551
  H       0.798156     -0.273823     -2.101758
  H      -4.024648     -0.028447      0.502489
  H      -2.349299      0.544765      0.852898
  H      -1.296349      1.178386     -1.720009
  H      -2.652483      0.800772     -2.849939
  H      -0.519934     -1.472294      1.828905
  H       1.446437     -0.331939      2.832261
25
Coordinates from ORCA-job file E -990.018720142936
  C       3.428369      1.028163      1.552804
  C       2.225215      0.363046      0.942738
  C       2.027870      0.373082     -0.446184
  C       0.933595     -0.265914     -1.022215
  C       0.015395     -0.913350     -0.191149
  S      -1.420464     -1.681581     -0.898243
  O      -1.967287     -2.609601      0.079772
  O      -1.086859     -2.103461     -2.248899
  N      -2.558119     -0.481833     -1.065560
  C      -3.066911      0.327959      0.055992
  C      -3.110468      1.565197     -0.787213
  C      -2.331382      0.778496     -1.795617
  C       0.187246     -0.942108      1.192490
  C       1.293395     -0.304433      1.748235
  H       3.250427      1.274677      2.607496
  H       3.690289      1.946124      1.009958
  H       4.298508      0.354894      1.506242
  H       2.746582      0.886091     -1.088835
  H       0.798478     -0.277404     -2.105477
  H      -4.001114     -0.015771      0.526214
  H      -2.315199      0.527773      0.852694
  H      -1.287791      1.160316     -1.730806
  H      -2.656407      0.808206     -2.846970
  H      -0.529512     -1.470399      1.822732
  H       1.436146     -0.328169      2.830401
25
Coordinates from ORCA-job file E -990.018792328281
  C       3.416623      1.033167      1.554049
  C       2.217585      0.363727      0.940956
  C       2.028343      0.365657     -0.449552
  C       0.936408     -0.274884     -1.027781
  C       0.013947     -0.916910     -0.197246
  S      -1.422478     -1.682413     -0.905660
  O      -1.966619     -2.616489      0.069228
  O      -1.093455     -2.102246     -2.258905
  N      -2.559236     -0.480700     -1.063822
  C      -3.048475      0.327922      0.066325
  C      -3.100007      1.566552     -0.774678
  C      -2.333105      0.780261     -1.791929
  C       0.178797     -0.939774      1.187370
  C       1.281991     -0.299345      1.745704
  H       3.234235      1.280730      2.607673
  H       3.679474      1.949871      1.009503
  H       4.289871      0.363356      1.513120
  H       2.752328      0.874214     -1.089843
  H       0.805023     -0.290409     -2.111473
  H      -3.969518     -0.015708      0.561431
  H      -2.281972      0.521591      0.850862
  H      -1.287460      1.158958     -1.731394
  H      -2.649720      0.815743     -2.845553
  H      -0.543116     -1.465942      1.813695
  H       1.420536     -0.316929      2.828522
25
Coordinates from ORCA-job file E -990.018779952296
  C       3.413396      1.034681      1.554129
  C       2.214654      0.363862      0.941631
  C       2.022308      0.370221     -0.448339
  C       0.930641     -0.271050     -1.026262
  C       0.012083     -0.918519     -0.195725
  S      -1.423772     -1.684439     -0.903331
  O      -1.968768     -2.617635      0.071656
  O      -1.096096     -2.106580     -2.255922
  N      -2.559112     -0.481000     -1.063175
  C      -3.042391      0.333719      0.065539
  C      -3.086838      1.571798     -0.777161
  C      -2.330065      0.776998     -1.795789
  C       0.180354     -0.946185      1.188616
  C       1.283004     -0.304640      1.746526
  H       3.233162      1.277547      2.609170
  H       3.671599      1.954507      1.012704
  H       4.288874      0.368235      1.507954
  H       2.744095      0.882473     -1.088199
  H       0.796284     -0.282699     -2.109651
  H      -3.964216     -0.002906      0.563969
  H      -2.274371      0.523341      0.849556
  H      -1.281900      1.149977     -1.741644
  H      -2.648851      0.811201     -2.848728
  H      -0.538502     -1.477584      1.814133
  H       1.424429     -0.325323      2.828940
25
Coordinates from ORCA-job file E -990.018791689292
  C       3.412945      1.034803      1.554256
  C       2.214518      0.363636      0.941297
  C       2.024210      0.367830     -0.448843
  C       0.932796     -0.273602     -1.027228
  C       0.012634     -0.919007     -0.196843
  S      -1.422636     -1.684506     -0.905066
  O      -1.966645     -2.619919      0.067909
  O      -1.096695     -2.103590     -2.258726
  N      -2.558205     -0.480791     -1.061679
  C      -3.042158      0.333314      0.067025
  C      -3.089892      1.571307     -0.775632
  C      -2.331810      0.777493     -1.794230
  C       0.179155     -0.944757      1.187853
  C       1.281393     -0.302930      1.746128
  H       3.231737      1.279044      2.608827
  H       3.671555      1.954228      1.012323
  H       4.288345      0.368225      1.509372
  H       2.747437      0.878443     -1.088370
  H       0.800083     -0.287324     -2.110799
  H      -3.962280     -0.004864      0.567626
  H      -2.273661      0.525523      0.850065
  H      -1.284501      1.152951     -1.738718
  H      -2.648831      0.811091     -2.847720
  H      -0.540858     -1.474938      1.813011
  H       1.421362     -0.321658      2.828761
25
Coordinates from ORCA-job file E -990.018794272132
  C       3.411966      1.035321      1.554139
  C       2.213883      0.363603      0.941045
  C       2.024025      0.367306     -0.449102
  C       0.932852     -0.274532     -1.027595
  C       0.012491     -0.919800     -0.197318
  S      -1.422702     -1.685035     -0.905633
  O      -1.966270     -2.621412      0.066525
  O      -1.097673     -2.102443     -2.259952
  N      -2.558276     -0.480908     -1.060926
  C      -3.040896      0.333882      0.067765
  C      -3.088924      1.571476     -0.775235
  C      -2.331196      0.777154     -1.793570
  C       0.178708     -0.945118      1.187468
  C       1.280611     -0.302858      1.745831
  H       3.230498      1.279629      2.608656
  H       3.669929      1.955051      1.012393
  H       4.287641      0.369137      1.509164
  H       2.747235      0.878031     -1.088554
  H       0.800480     -0.288640     -2.111204
  H      -3.960617     -0.003611      0.569580
  H      -2.271585      0.526751      0.849912
  H      -1.283863      1.152494     -1.736565
  H      -2.647096      0.810749     -2.847393
  H      -0.541437     -1.475089      1.812654
  H       1.420216     -0.321137      2.828516
