22
Coordinates from ORCA-job file E -644.503851979706
  F       2.907400     -0.978900     -1.355800
  C       2.476900      0.109100     -0.616300
  F       2.776500      1.258400     -1.326800
  F       3.158400      0.134100      0.588500
  C       0.953700      0.023900     -0.372700
  C       0.603200     -1.281100      0.371100
  C      -0.901400     -1.576300      0.392600
  N      -1.669300     -0.466100      0.980600
  C      -1.928400      0.597500     -0.004300
  C      -0.828500      1.673700      0.013700
  N       0.483800      1.166200      0.440500
  H       0.470500      0.014400     -1.377600
  H       0.977200     -1.225900      1.417500
  H       1.104600     -2.145100     -0.116600
  H      -1.053000     -2.486200      1.015000
  H      -1.260300     -1.835800     -0.628700
  H      -2.597300     -0.855600      1.270400
  H      -2.896100      1.093400      0.234500
  H      -2.045000      0.193300     -1.034900
  H      -1.134200      2.473900      0.722900
  H      -0.749500      2.142300     -0.993100
  H       1.150800      1.970800      0.379600
22
Coordinates from ORCA-job file E -644.512804465066
  F       2.894725     -0.935946     -1.324881
  C       2.442489      0.110601     -0.604105
  F       2.766007      1.232265     -1.294816
  F       3.143466      0.143891      0.544800
  C       0.942562      0.016512     -0.366547
  C       0.598609     -1.284605      0.374815
  C      -0.901725     -1.579881      0.398230
  N      -1.694405     -0.484611      0.957262
  C      -1.919806      0.597574      0.002846
  C      -0.820311      1.679728      0.018962
  N       0.492494      1.167917      0.411686
  H       0.493258      0.001719     -1.374727
  H       0.969256     -1.196867      1.400172
  H       1.103391     -2.132785     -0.103935
  H      -1.061888     -2.468738      1.018580
  H      -1.236173     -1.835787     -0.626246
  H      -2.590686     -0.854962      1.241557
  H      -2.870356      1.084988      0.245749
  H      -2.027748      0.202058     -1.024083
  H      -1.085973      2.462691      0.736956
  H      -0.793741      2.145244     -0.983059
  H       1.156554      1.928992      0.350884
22
Coordinates from ORCA-job file E -644.513411460052
  F       2.889069     -0.944864     -1.337117
  C       2.436617      0.104204     -0.613251
  F       2.758884      1.227967     -1.306533
  F       3.146903      0.137467      0.535767
  C       0.936390      0.012508     -0.372291
  C       0.595060     -1.280506      0.383873
  C      -0.903603     -1.583600      0.409403
  N      -1.709875     -0.487912      0.943935
  C      -1.908029      0.595550     -0.013812
  C      -0.823959      1.687660      0.043404
  N       0.499837      1.176404      0.389395
  H       0.500005     -0.013792     -1.385985
  H       0.965153     -1.168851      1.406987
  H       1.104925     -2.130654     -0.084581
  H      -1.062526     -2.464244      1.040927
  H      -1.228807     -1.853573     -0.614638
  H      -2.610068     -0.852608      1.229853
  H      -2.869382      1.078208      0.193015
  H      -1.973045      0.197864     -1.043140
  H      -1.084098      2.428316      0.806876
  H      -0.830578      2.202016     -0.934830
  H       1.171127      1.932439      0.322843
22
Coordinates from ORCA-job file E -644.513699820822
  F       2.875457     -0.954390     -1.354260
  C       2.431413      0.095943     -0.626701
  F       2.754255      1.219041     -1.321696
  F       3.150205      0.125493      0.516738
  C       0.931151      0.011539     -0.378025
  C       0.592467     -1.272843      0.395780
  C      -0.904239     -1.587335      0.419712
  N      -1.722172     -0.489132      0.929848
  C      -1.894161      0.593419     -0.033599
  C      -0.828165      1.695526      0.070487
  N       0.506706      1.185801      0.374524
  H       0.494991     -0.026561     -1.391647
  H       0.958426     -1.139626      1.418217
  H       1.110143     -2.126765     -0.057570
  H      -1.060683     -2.458496      1.065254
  H      -1.220347     -1.876857     -0.602050
  H      -2.626473     -0.847628      1.210926
  H      -2.867759      1.068217      0.131804
  H      -1.911970      0.196873     -1.065392
  H      -1.091095      2.387874      0.878000
  H      -0.858488      2.260881     -0.878972
  H       1.180337      1.939026      0.298723
22
Coordinates from ORCA-job file E -644.513840071863
  F       2.854152     -0.965609     -1.374934
  C       2.425802      0.087159     -0.641312
  F       2.751996      1.208337     -1.337362
  F       3.154740      0.108590      0.495785
  C       0.926771      0.013241     -0.381241
  C       0.590158     -1.262378      0.409867
  C      -0.903889     -1.590337      0.428377
  N      -1.732655     -0.490155      0.915686
  C      -1.879438      0.591313     -0.053055
  C      -0.831877      1.701397      0.098535
  N       0.515175      1.197163      0.362130
  H       0.484932     -0.036305     -1.391603
  H       0.947717     -1.109976      1.432536
  H       1.118004     -2.119374     -0.025620
  H      -1.057474     -2.451616      1.087694
  H      -1.210298     -1.899780     -0.590426
  H      -2.642257     -0.844496      1.183793
  H      -2.863454      1.057090      0.071554
  H      -1.851565      0.197249     -1.085465
  H      -1.101272      2.342367      0.945652
  H      -0.881347      2.316045     -0.818578
  H       1.186076      1.950075      0.268086
22
Coordinates from ORCA-job file E -644.513886303908
  F       2.839520     -0.973587     -1.387681
  C       2.424735      0.080196     -0.647963
  F       2.755907      1.200811     -1.342462
  F       3.160202      0.091851      0.484050
  C       0.926250      0.015425     -0.381699
  C       0.588861     -1.253751      0.420085
  C      -0.902783     -1.591485      0.430816
  N      -1.739342     -0.492782      0.908301
  C      -1.873463      0.590433     -0.060715
  C      -0.834262      1.703273      0.114348
  N       0.522242      1.207126      0.352943
  H       0.481129     -0.041910     -1.390025
  H       0.937167     -1.089618      1.444121
  H       1.125324     -2.112142     -0.001948
  H      -1.054778     -2.449172      1.095231
  H      -1.201679     -1.909233     -0.587534
  H      -2.652675     -0.848260      1.161699
  H      -2.861365      1.052176      0.047163
  H      -1.826325      0.199726     -1.093536
  H      -1.106944      2.314407      0.982418
  H      -0.894866      2.344652     -0.783010
  H       1.187144      1.961866      0.235498
22
Coordinates from ORCA-job file E -644.513919466598
  F       2.830619     -0.978460     -1.395916
  C       2.425955      0.074638     -0.649648
  F       2.762841      1.196136     -1.339908
  F       3.164759      0.075496      0.479670
  C       0.927402      0.017070     -0.381383
  C       0.588362     -1.246871      0.427931
  C      -0.901200     -1.591434      0.430070
  N      -1.743809     -0.496235      0.905334
  C      -1.872465      0.590118     -0.061415
  C      -0.835702      1.703141      0.123550
  N       0.528283      1.215291      0.345288
  H       0.481209     -0.046525     -1.388866
  H       0.927910     -1.074559      1.453519
  H       1.131792     -2.106036      0.016561
  H      -1.052870     -2.449965      1.093474
  H      -1.193791     -1.909699     -0.589872
  H      -2.659442     -0.856098      1.143823
  H      -2.860680      1.051574      0.044593
  H      -1.821725      0.203287     -1.095452
  H      -1.108734      2.299320      1.001881
  H      -0.903760      2.357581     -0.763319
  H       1.185045      1.972229      0.200183
22
Coordinates from ORCA-job file E -644.513935773251
  F       2.826261     -0.979968     -1.402002
  C       2.427046      0.070809     -0.649318
  F       2.768649      1.194646     -1.333829
  F       3.166666      0.061708      0.479071
  C       0.928016      0.017680     -0.381422
  C       0.588023     -1.242135      0.433660
  C      -0.900058     -1.591084      0.429320
  N      -1.747038     -0.499200      0.904504
  C      -1.872059      0.589865     -0.060145
  C      -0.836300      1.702397      0.130119
  N       0.533016      1.221097      0.339293
  H       0.481972     -0.050927     -1.388765
  H       0.921542     -1.063426      1.460110
  H       1.136225     -2.101876      0.029952
  H      -1.052156     -2.451841      1.089708
  H      -1.187949     -1.907135     -0.592662
  H      -2.664221     -0.863535      1.130549
  H      -2.859394      1.052821      0.047663
  H      -1.821497      0.206263     -1.095460
  H      -1.107779      2.291144      1.013893
  H      -0.910845      2.363366     -0.751138
  H       1.181881      1.979331      0.167001
22
Coordinates from ORCA-job file E -644.513939034150
  F       2.827579     -0.978874     -1.402752
  C       2.427681      0.070386     -0.648195
  F       2.770588      1.195586     -1.329971
  F       3.166022      0.058480      0.481068
  C       0.928174      0.017568     -0.381972
  C       0.587799     -1.241634      0.433819
  C      -0.900160     -1.590936      0.429157
  N      -1.747655     -0.499853      0.905217
  C      -1.872539      0.589774     -0.058782
  C      -0.836345      1.701962      0.130593
  N       0.533924      1.221986      0.337681
  H       0.483150     -0.051758     -1.389779
  H       0.921137     -1.062081      1.460194
  H       1.136287     -2.101463      0.030673
  H      -1.052258     -2.452563      1.088408
  H      -1.187793     -1.905813     -0.593291
  H      -2.664895     -0.865021      1.129908
  H      -2.859309      1.053611      0.050483
  H      -1.823236      0.206648     -1.094370
  H      -1.106475      2.291264      1.014406
  H      -0.912587      2.362446     -0.750883
  H       1.180912      1.980287      0.158486
22
Coordinates from ORCA-job file E -644.513940397014
  F       2.829180     -0.977533     -1.402713
  C       2.427968      0.070609     -0.647250
  F       2.771512      1.196799     -1.327178
  F       3.164890      0.057401      0.482964
  C       0.928127      0.017407     -0.382563
  C       0.587672     -1.241987      0.432887
  C      -0.900408     -1.590897      0.429229
  N      -1.747413     -0.499767      0.905926
  C      -1.872887      0.589707     -0.058090
  C      -0.836399      1.701834      0.129897
  N       0.533793      1.221836      0.337139
  H       0.483940     -0.051768     -1.390787
  H       0.921946     -1.062908      1.459042
  H       1.135578     -2.101786      0.028863
  H      -1.052275     -2.452705      1.088298
  H      -1.188775     -1.905430     -0.593134
  H      -2.664422     -0.864683      1.132038
  H      -2.859456      1.053829      0.051834
  H      -1.824377      0.206308     -1.093635
  H      -1.105782      2.292518      1.013010
  H      -0.912999      2.361123     -0.752479
  H       1.180585      1.980093      0.156802
