22
Coordinates from ORCA-job file
  F   2.82918024008528     -0.97753251831009     -1.40271340383707
  C   2.42796847867869      0.07060858400885     -0.64724967579822
  F   2.77151194646308      1.19679892146399     -1.32717831128756
  F   3.16489049432599      0.05740102294843      0.48296374609019
  C   0.92812668315120      0.01740741331761     -0.38256265052506
  C   0.58767152534407     -1.24198725935610      0.43288728879605
  C   -0.90040781071995     -1.59089652258227      0.42922886398588
  N   -1.74741274201107     -0.49976712984714      0.90592554785095
  C   -1.87288663541674      0.58970709800273     -0.05808952152943
  C   -0.83639892369504      1.70183366460939      0.12989729194719
  N   0.53379313638952      1.22183628837517      0.33713946147207
  H   0.48393955736229     -0.05176767945465     -1.39078677623857
  H   0.92194571398163     -1.06290802583139      1.45904248720021
  H   1.13557826450987     -2.10178580794706      0.02886329287764
  H   -1.05227466234525     -2.45270511371217      1.08829796880728
  H   -1.18877523631931     -1.90543010442952     -0.59313448240298
  H   -2.66442211125166     -0.86468303103638      1.13203753926735
  H   -2.85945552808005      1.05382900644580      0.05183419515225
  H   -1.82437675388952      0.20630750590551     -1.09363496005814
  H   -1.10578221828132      2.29251802821879      1.01300960503403
  H   -0.91299855071238      2.36112278314432     -0.75247917913983
  H   1.18058513243066      1.98009287606617      0.15680167233579
