16
Coordinates from ORCA-job file E -268.082306888195
  C      -0.972400      0.804000      0.331600
  C       0.290300      1.292700     -0.383300
  N       1.442500      0.441500     -0.062200
  C       1.163000     -0.962500     -0.400500
  N      -0.003100     -1.471600      0.337700
  C      -1.199900     -0.679400      0.028900
  H      -1.849100      1.395100     -0.009900
  H      -0.859000      0.947600      1.428400
  H       0.124400      1.300800     -1.483400
  H       0.506900      2.337000     -0.070900
  H       1.638600      0.509800      0.964500
  H       0.999800     -1.068200     -1.496400
  H       2.050800     -1.579800     -0.144400
  H       0.191300     -1.405600      1.364800
  H      -1.471200     -0.811000     -1.042000
  H      -2.052800     -1.050600      0.637200
16
Coordinates from ORCA-job file E -268.088016604096
  C      -0.983734      0.812921      0.333572
  C       0.292401      1.297660     -0.373760
  N       1.455571      0.452543     -0.082224
  C       1.154673     -0.948931     -0.366929
  N      -0.013444     -1.491054      0.324183
  C      -1.202381     -0.680175      0.039637
  H      -1.851195      1.399913      0.004337
  H      -0.878121      0.959680      1.418637
  H       0.136243      1.285984     -1.461314
  H       0.527108      2.330300     -0.093625
  H       1.687019      0.540002      0.902493
  H       0.977309     -1.040398     -1.445881
  H       2.029143     -1.557972     -0.117813
  H       0.164850     -1.473687      1.323581
  H      -1.450062     -0.812973     -1.022636
  H      -2.045282     -1.074014      0.617841
16
Coordinates from ORCA-job file E -268.088413986088
  C      -0.985770      0.814970      0.336171
  C       0.288187      1.300861     -0.373143
  N       1.454805      0.457516     -0.094246
  C       1.156387     -0.948238     -0.357971
  N      -0.020534     -1.494483      0.313802
  C      -1.206566     -0.676890      0.040219
  H      -1.854269      1.404620      0.015101
  H      -0.876553      0.958886      1.421133
  H       0.128753      1.287426     -1.460585
  H       0.525725      2.334387     -0.098984
  H       1.723391      0.564457      0.880910
  H       0.993878     -1.051367     -1.438960
  H       2.028697     -1.552063     -0.090478
  H       0.148326     -1.519011      1.316446
  H      -1.453787     -0.806133     -1.022997
  H      -2.050570     -1.075139      0.613681
16
Coordinates from ORCA-job file E -268.088507969991
  C      -0.986173      0.816188      0.340651
  C       0.284094      1.302134     -0.374310
  N       1.452476      0.460319     -0.101605
  C       1.159128     -0.949141     -0.352054
  N      -0.025245     -1.494979      0.307116
  C      -1.209169     -0.673708      0.038546
  H      -1.855834      1.408006      0.025552
  H      -0.871383      0.955898      1.425786
  H       0.117253      1.287442     -1.461121
  H       0.522673      2.336647     -0.103436
  H       1.747651      0.583076      0.863353
  H       1.012084     -1.064218     -1.434538
  H       2.029694     -1.547926     -0.066811
  H       0.134612     -1.550415      1.309425
  H      -1.457315     -0.795570     -1.025827
  H      -2.054446     -1.073953      0.609374
16
Coordinates from ORCA-job file E -268.088510895657
  C      -0.985925      0.816241      0.341827
  C       0.283164      1.302107     -0.375099
  N       1.451578      0.460522     -0.102829
  C       1.159758     -0.949536     -0.351392
  N      -0.025962     -1.494532      0.305927
  C      -1.209554     -0.673043      0.037596
  H      -1.855859      1.408662      0.028709
  H      -0.868847      0.954222      1.426921
  H       0.114387      1.287215     -1.461596
  H       0.521950      2.336594     -0.104435
  H       1.750008      0.586005      0.860907
  H       1.016198     -1.067272     -1.434020
  H       2.029824     -1.547015     -0.062074
  H       0.132123     -1.553889      1.308423
  H      -1.457901     -0.792958     -1.026936
  H      -2.054842     -1.073522      0.608173
16
Coordinates from ORCA-job file E -268.088511029946
  C      -0.985824      0.816201      0.342022
  C       0.282994      1.302076     -0.375333
  N       1.451398      0.460536     -0.102978
  C       1.159855     -0.949616     -0.351343
  N      -0.026060     -1.494398      0.305794
  C      -1.209614     -0.672941      0.037329
  H      -1.855871      1.408855      0.029631
  H      -0.868027      0.953640      1.427114
  H       0.113939      1.287123     -1.461784
  H       0.521846      2.336559     -0.104670
  H       1.749825      0.586324      0.860657
  H       1.016895     -1.067829     -1.433990
  H       2.029840     -1.546857     -0.061249
  H       0.131735     -1.553819      1.308272
  H      -1.457922     -0.792566     -1.027243
  H      -2.054908     -1.073488      0.607871
