16
Coordinates from ORCA-job file
  C   -0.98582397139686      0.81620112102507      0.34202198745082
  C   0.28299417674647      1.30207557946679     -0.37533332940553
  N   1.45139794322332      0.46053646225745     -0.10297767902488
  C   1.15985502685017     -0.94961606634452     -0.35134297688046
  N   -0.02605993958456     -1.49439787151408      0.30579395598526
  C   -1.20961437984236     -0.67294147996739      0.03732933306205
  H   -1.85587117718637      1.40885456686790      0.02963061824207
  H   -0.86802739139526      0.95363968362529      1.42711420548473
  H   0.11393902916588      1.28712251846455     -1.46178405461862
  H   0.52184629816048      2.33655939738833     -0.10466999326880
  H   1.74982469179229      0.58632431175306      0.86065734453305
  H   1.01689457908841     -1.06782893732353     -1.43399018689917
  H   2.02983982251901     -1.54685684224797     -0.06124932994776
  H   0.13173518388471     -1.55381874393679      1.30827215443962
  H   -1.45792198317085     -0.79256588702450     -1.02724303958993
  H   -2.05490790885449     -1.07348781248967      0.60787099043756
