11
Coordinates from ORCA-job file E -248.400568480752
  C       0.083600      1.171600     -0.002700
  C      -1.171500      0.558800     -0.000700
  C      -1.250300     -0.836600      0.002500
  N      -0.113000     -1.583100      0.003700
  C       1.118900     -1.005600      0.001800
  C       1.239000      0.386800     -0.001500
  H       0.160600      2.251200     -0.005200
  H      -2.073000      1.157800     -0.001700
  H      -2.215200     -1.325700      0.004100
  H       2.004600     -1.626800      0.002800
  H       2.216400      0.851700     -0.003000
11
Coordinates from ORCA-job file E -248.405042061629
  C       0.085147      1.192418     -0.002764
  C      -1.160328      0.567261     -0.000733
  C      -1.202301     -0.827615      0.002466
  N      -0.114213     -1.600322      0.003727
  C       1.072599     -0.990065      0.001774
  C       1.229145      0.396636     -0.001487
  H       0.162515      2.276889     -0.005289
  H      -2.081811      1.142476     -0.001631
  H      -2.156626     -1.350279      0.004123
  H       1.943148     -1.642779      0.002867
  H       2.222824      0.835480     -0.002953
11
Coordinates from ORCA-job file E -248.405065986691
  C       0.085175      1.192511     -0.002766
  C      -1.160537      0.567416     -0.000738
  C      -1.203736     -0.827427      0.002470
  N      -0.114572     -1.604687      0.003733
  C       1.074053     -0.990111      0.001773
  C       1.229390      0.396726     -0.001475
  H       0.162556      2.277178     -0.005300
  H      -2.082097      1.142842     -0.001623
  H      -2.159899     -1.348621      0.004118
  H       1.946640     -1.641605      0.002859
  H       2.223127      0.835877     -0.002952
11
Coordinates from ORCA-job file E -248.405066151120
  C       0.085182      1.192580     -0.002767
  C      -1.160514      0.567402     -0.000739
  C      -1.203540     -0.827500      0.002470
  N      -0.114559     -1.604547      0.003733
  C       1.073847     -0.990163      0.001772
  C       1.229364      0.396716     -0.001475
  H       0.162560      2.277232     -0.005299
  H      -2.082110      1.142748     -0.001624
  H      -2.159786     -1.348592      0.004120
  H       1.946533     -1.641563      0.002858
  H       2.223124      0.835786     -0.002951
