11
Coordinates from ORCA-job file
  C   0.08518155002921      1.19258042373265     -0.00276651624485
  C   -1.16051410758369      0.56740245244936     -0.00073920469084
  C   -1.20353971380574     -0.82749986355209      0.00247043025921
  N   -0.11455938973395     -1.60454667022575      0.00373267075174
  C   1.07384724842666     -0.99016318736150      0.00177234810564
  C   1.22936396742453      0.39671624947352     -0.00147459951676
  H   0.16255997443908      2.27723196839877     -0.00529893243546
  H   -2.08210993579695      1.14274757413459     -0.00162384189093
  H   -2.15978615843761     -1.34859240975629      0.00412006478604
  H   1.94653281227493     -1.64156264802074      0.00285834129380
  H   2.22312375276353      0.83578611072747     -0.00295076041758
