17
Coordinates from ORCA-job file
  C   -0.88717294722565     -0.96731425456482      0.34127196783800
  C   -1.31237763512433      0.49586256829176      0.16177042040337
  C   -0.13342831962521      1.43584344698793      0.45409391188579
  N   1.06982936130056      1.13407897068076     -0.32395800993083
  C   1.47711884881793     -0.26547962556512     -0.18401286766156
  C   0.35960976358650     -1.27061278567327     -0.49979799880559
  H   -0.65744980338624     -1.14748054012769      1.40200937788951
  H   -1.70785357394016     -1.64466630130443      0.07509436069785
  H   -1.65128398514715      0.65402738675701     -0.87287944759945
  H   -2.15885331470523      0.73717582274280      0.81785225262260
  H   -0.41146559635830      2.48010976788579      0.27041455602300
  H   0.13567836102004      1.35983517086761      1.51781759456596
  H   0.90087253478791      1.34207553343820     -1.30441298162164
  H   2.35005954327374     -0.43750773051077     -0.82419244747598
  H   1.80993182282453     -0.40824010187068      0.85450941177730
  H   0.71113539483451     -2.29454593312808     -0.31738903804930
  H   0.10534954506654     -1.20296139490701     -1.56809106255901
