17
Coordinates from ORCA-job file E -252.060312039294
  C      -0.880500     -0.956500      0.328400
  C      -1.296900      0.507200      0.163200
  C      -0.118400      1.440400      0.475300
  N       1.049200      1.128900     -0.362400
  C       1.490400     -0.259300     -0.161700
  C       0.372500     -1.256600     -0.497900
  H      -0.678100     -1.167100      1.401700
  H      -1.710100     -1.617900     -0.001900
  H      -1.644500      0.681600     -0.878700
  H      -2.140100      0.732000      0.851100
  H      -0.429000      2.491200      0.290100
  H       0.156100      1.359700      1.550500
  H       0.791000      1.261800     -1.368900
  H       2.365400     -0.461100     -0.816400
  H       1.822900     -0.401300      0.890500
  H       0.719900     -2.289700     -0.281400
  H       0.129900     -1.193100     -1.581400
17
Coordinates from ORCA-job file E -252.063761227836
  C      -0.889614     -0.965819      0.330456
  C      -1.308094      0.502294      0.167921
  C      -0.124108      1.436742      0.457299
  N       1.062894      1.135761     -0.346335
  C       1.480221     -0.258092     -0.177834
  C       0.368276     -1.268658     -0.495693
  H      -0.682206     -1.167402      1.391345
  H      -1.709479     -1.630297      0.032640
  H      -1.656385      0.673257     -0.861274
  H      -2.146200      0.736987      0.836508
  H      -0.405307      2.481506      0.283843
  H       0.160789      1.351633      1.515391
  H       0.842632      1.293780     -1.323993
  H       2.357146     -0.436947     -0.809962
  H       1.803838     -0.384231      0.864880
  H       0.718729     -2.289741     -0.297897
  H       0.126568     -1.210572     -1.567196
17
Coordinates from ORCA-job file E -252.063898368102
  C      -0.888957     -0.967102      0.335780
  C      -1.310462      0.498677      0.165330
  C      -0.128987      1.436107      0.454979
  N       1.067362      1.135700     -0.334888
  C       1.478203     -0.261757     -0.181481
  C       0.363693     -1.269990     -0.497297
  H      -0.670479     -1.158201      1.396675
  H      -1.709326     -1.638667      0.055252
  H      -1.654120      0.663514     -0.866556
  H      -2.153483      0.737748      0.826299
  H      -0.407688      2.481288      0.278704
  H       0.150330      1.354667      1.515383
  H       0.872301      1.318988     -1.316037
  H       2.354779     -0.437197     -0.815427
  H       1.805498     -0.393853      0.859904
  H       0.715109     -2.292693     -0.309242
  H       0.115927     -1.207030     -1.567279
17
Coordinates from ORCA-job file E -252.063936004499
  C      -0.887374     -0.967327      0.340674
  C      -1.312170      0.496102      0.162189
  C      -0.132873      1.435810      0.453938
  N       1.069689      1.134535     -0.325736
  C       1.477083     -0.264957     -0.183828
  C       0.359988     -1.270517     -0.499551
  H      -0.658677     -1.148595      1.401466
  H      -1.708077     -1.644315      0.073496
  H      -1.651559      0.654977     -0.872236
  H      -2.158583      0.737472      0.818386
  H      -0.410814      2.480523      0.272379
  H       0.138226      1.358421      1.517107
  H       0.897124      1.339027     -1.306235
  H       2.351337     -0.437688     -0.822100
  H       1.808397     -0.405660      0.855507
  H       0.711582     -2.294486     -0.317293
  H       0.106401     -1.203122     -1.568064
17
Coordinates from ORCA-job file E -252.063937609666
  C      -0.887173     -0.967314      0.341272
  C      -1.312378      0.495863      0.161770
  C      -0.133428      1.435843      0.454094
  N       1.069829      1.134079     -0.323958
  C       1.477119     -0.265480     -0.184013
  C       0.359610     -1.270613     -0.499798
  H      -0.657450     -1.147481      1.402009
  H      -1.707854     -1.644666      0.075094
  H      -1.651284      0.654027     -0.872879
  H      -2.158853      0.737176      0.817852
  H      -0.411466      2.480110      0.270415
  H       0.135678      1.359835      1.517818
  H       0.900873      1.342076     -1.304413
  H       2.350060     -0.437508     -0.824192
  H       1.809932     -0.408240      0.854509
  H       0.711135     -2.294546     -0.317389
  H       0.105350     -1.202961     -1.568091
