10
Coordinates from ORCA-job file
  C   -0.03350000000000     -1.39280000000000     -0.18930000000000
  C   0.97800000000000     -0.40830000000000      0.36970000000000
  C   0.01770000000000      0.73730000000000      0.10020000000000
  C   -0.99370000000000     -0.24820000000000     -0.45890000000000
  H   1.16180000000000     -0.57180000000000      1.45330000000000
  H   1.89650000000000     -0.35740000000000     -0.25360000000000
  H   -0.33470000000000      1.22870000000000      1.03360000000000
  H   0.39880000000000      1.44270000000000     -0.67040000000000
  H   -1.17810000000000     -0.10790000000000     -1.54570000000000
  H   -1.91290000000000     -0.32230000000000      0.16120000000000
