20
Coordinates from ORCA-job file
  C   1.59897728635329     -0.24486669037060     -0.46777928096218
  C   0.84001264760213      0.93834696655671     -1.07978155697003
  C   -0.52731139143606      1.09320512365396     -0.39550332023442
  C   -1.34138332197739     -0.18647833009219     -0.64047714046542
  C   -0.55754883635716     -1.13244267277103      0.27524754823287
  C   -0.43146468726305     -0.27006736236238      1.55665307254385
  N   -0.34604989148874      1.13071571809160      1.07547831662217
  N   0.72641703986256     -1.42552789551900     -0.37664597740841
  H   1.97508160869658      0.07006198427774      0.51925272818435
  H   2.46571437669104     -0.50347740009242     -1.08605346416788
  H   1.43199815204143      1.85055668528651     -0.94606547999495
  H   0.68890111864384      0.77847521066547     -2.15490579541501
  H   -1.02503357330946      2.00905425636097     -0.73184926790443
  H   -2.37504947114777     -0.06611437211564     -0.29230549557861
  H   -1.34027030075944     -0.52742639906142     -1.67939864917461
  H   -1.06984849010127     -2.08067648905109      0.46624314607477
  H   0.46095543402990     -0.54156866494917      2.13495658158799
  H   -1.30734261343700     -0.41953605567912      2.20194519071522
  H   -1.07487725845482      1.69300462964953      1.49716187458227
  H   1.20812217181136     -2.16523824247841      0.12372696973246
