20
Coordinates from ORCA-job file E -345.547544808323
  C       1.611000     -0.278000     -0.529300
  C       0.840700      0.961300     -1.048100
  C      -0.537700      1.082500     -0.367800
  C      -1.310300     -0.191600     -0.644100
  C      -0.576600     -1.122500      0.284700
  C      -0.430200     -0.260700      1.544800
  N      -0.355500      1.137000      1.089900
  N       0.734900     -1.455600     -0.318400
  H       2.127400     -0.015200      0.420800
  H       2.401400     -0.544200     -1.262700
  H       1.437400      1.878100     -0.851400
  H       0.704300      0.878700     -2.148900
  H      -1.080700      1.977700     -0.745400
  H      -2.374000     -0.079600     -0.335300
  H      -1.261800     -0.517500     -1.707300
  H      -1.160600     -2.048900      0.478400
  H       0.479500     -0.527900      2.123400
  H      -1.316400     -0.409500      2.203500
  H      -1.163400      1.663200      1.499800
  H       1.230600     -2.127300      0.313300
20
Coordinates from ORCA-job file E -345.553758936102
  C       1.598350     -0.271899     -0.511943
  C       0.840214      0.950739     -1.054036
  C      -0.532713      1.094339     -0.385613
  C      -1.325410     -0.190535     -0.648783
  C      -0.562616     -1.129325      0.284218
  C      -0.435404     -0.261774      1.561298
  N      -0.372432      1.142354      1.085151
  N       0.727411     -1.451156     -0.340367
  H       2.080052      0.015356      0.436844
  H       2.396107     -0.542631     -1.212660
  H       1.439878      1.846431     -0.859433
  H       0.703035      0.864655     -2.139545
  H      -1.039344      1.997301     -0.741883
  H      -2.371830     -0.083509     -0.336939
  H      -1.286638     -0.525358     -1.688889
  H      -1.100020     -2.062856      0.476094
  H       0.467589     -0.520958      2.128806
  H      -1.300152     -0.418081      2.219246
  H      -1.138543      1.666959      1.482905
  H       1.212468     -2.120052      0.245430
20
Coordinates from ORCA-job file E -345.554544134737
  C       1.595759     -0.260650     -0.487439
  C       0.840055      0.942487     -1.065777
  C      -0.531014      1.094533     -0.393484
  C      -1.336796     -0.187792     -0.645190
  C      -0.560451     -1.130043      0.278844
  C      -0.428168     -0.263898      1.558018
  N      -0.363558      1.139756      1.078685
  N       0.723253     -1.441021     -0.365572
  H       2.022627      0.040340      0.482970
  H       2.429913     -0.525715     -1.146210
  H       1.437821      1.843683     -0.891758
  H       0.700710      0.828081     -2.148013
  H      -1.027612      2.006738     -0.740031
  H      -2.376785     -0.074491     -0.315248
  H      -1.316565     -0.528419     -1.683796
  H      -1.081985     -2.072214      0.472592
  H       0.475519     -0.525302      2.122806
  H      -1.290985     -0.420819      2.217967
  H      -1.120028      1.677219      1.485045
  H       1.208290     -2.142473      0.185491
20
Coordinates from ORCA-job file E -345.554828062067
  C       1.596058     -0.247371     -0.467206
  C       0.840059      0.937397     -1.078387
  C      -0.527872      1.093726     -0.397183
  C      -1.342816     -0.185882     -0.641310
  C      -0.558929     -1.131920      0.274702
  C      -0.426554     -0.268543      1.555288
  N      -0.349006      1.133598      1.074636
  N       0.723623     -1.428591     -0.380235
  H       1.970732      0.066115      0.520919
  H       2.463441     -0.505351     -1.084925
  H       1.434151      1.846981     -0.935656
  H       0.693353      0.785975     -2.155353
  H      -1.022567      2.010848     -0.734839
  H      -2.376796     -0.065412     -0.294029
  H      -1.340898     -0.528663     -1.679650
  H      -1.071504     -2.079641      0.468148
  H       0.472204     -0.536884      2.125071
  H      -1.295049     -0.420885      2.209733
  H      -1.087762      1.686404      1.491246
  H       1.206130     -2.161900      0.128928
20
Coordinates from ORCA-job file E -345.554845711414
  C       1.598977     -0.245370     -0.468248
  C       0.840542      0.938292     -1.079781
  C      -0.526887      1.093386     -0.395946
  C      -1.341789     -0.186139     -0.640399
  C      -0.557890     -1.132419      0.275188
  C      -0.431068     -0.269920      1.556456
  N      -0.346684      1.131387      1.075521
  N       0.726018     -1.425832     -0.377219
  H       1.974074      0.069651      0.519065
  H       2.466361     -0.503914     -1.085613
  H       1.433005      1.850008     -0.944839
  H       0.689569      0.779654     -2.155075
  H      -1.023476      2.009904     -0.732140
  H      -2.375067     -0.065027     -0.291346
  H      -1.341778     -0.527805     -1.679062
  H      -1.069612     -2.080870      0.466699
  H       0.462553     -0.541123      2.132982
  H      -1.305325     -0.419730      2.203825
  H      -1.079467      1.690438      1.495188
  H       1.207943     -2.164570      0.124642
20
Coordinates from ORCA-job file E -345.554847181935
  C       1.598994     -0.244943     -0.467627
  C       0.840180      0.938341     -1.079740
  C      -0.527220      1.093305     -0.395560
  C      -1.341449     -0.186345     -0.640448
  C      -0.557555     -1.132380      0.275202
  C      -0.431121     -0.269980      1.556544
  N      -0.346235      1.130960      1.075523
  N       0.726284     -1.425528     -0.376886
  H       1.974670      0.069946      0.519594
  H       2.466064     -0.503519     -1.085437
  H       1.432203      1.850555     -0.946216
  H       0.688968      0.778231     -2.154815
  H      -1.024781      2.009256     -0.731885
  H      -2.374972     -0.065726     -0.291925
  H      -1.340785     -0.527374     -1.679347
  H      -1.069813     -2.080618      0.466317
  H       0.461583     -0.541368      2.134460
  H      -1.306649     -0.419550      2.202270
  H      -1.076284      1.692158      1.496558
  H       1.207915     -2.165420      0.123318
20
Coordinates from ORCA-job file E -345.554847416409
  C       1.598977     -0.244867     -0.467779
  C       0.840013      0.938347     -1.079782
  C      -0.527311      1.093205     -0.395503
  C      -1.341383     -0.186478     -0.640477
  C      -0.557549     -1.132443      0.275248
  C      -0.431465     -0.270067      1.556653
  N      -0.346050      1.130716      1.075478
  N       0.726417     -1.425528     -0.376646
  H       1.975082      0.070062      0.519253
  H       2.465714     -0.503477     -1.086053
  H       1.431998      1.850557     -0.946065
  H       0.688901      0.778475     -2.154906
  H      -1.025034      2.009054     -0.731849
  H      -2.375049     -0.066114     -0.292305
  H      -1.340270     -0.527426     -1.679399
  H      -1.069848     -2.080676      0.466243
  H       0.460955     -0.541569      2.134957
  H      -1.307343     -0.419536      2.201945
  H      -1.074877      1.693005      1.497162
  H       1.208122     -2.165238      0.123727
