60
Coordinates from ORCA-job file
  C   -4.29861822961097     -0.38451120545948      3.86467544647501
  O   -3.65052888095238     -1.58074373427657      3.44620275227468
  C   -2.95590244115076     -1.58207465300012      2.27536348182920
  C   -2.82756855455895     -0.46412227182363      1.44842872249275
  C   -2.08184703293547     -0.58010800428225      0.26678654174260
  O   -1.90407115513339      0.45710238602104     -0.59412997561060
  C   -2.53862265990071      1.70492077816701     -0.33433765278104
  C   -1.48407735843527     -1.79378693981646     -0.09637607275431
  S   -0.38421617595701     -1.98028491115996     -1.58803474997092
  C   -1.58450655304422     -1.45666156476473     -2.87039150825169
  C   -2.88531885788886     -1.95515986223519     -2.85553448425969
  C   -3.75463977181331     -1.65187380284448     -3.90048889134951
  C   -3.30646138948914     -0.84980611866720     -4.94728366198457
  Cl  -4.40589003903443     -0.45904923080244     -6.26532323056745
  C   -2.00558873481975     -0.35757361907651     -4.97156680704087
  C   -1.13760213317904     -0.67391732113802     -3.92739856536080
  C   0.96547848861661     -1.01235848369991     -1.71287702520876
  C   1.25866346907099      0.38314113534292     -1.17704554608814
  N   2.59624344414567     -0.12954950218820     -0.71718218689567
  S   4.00899679110267      0.69068072378780     -1.13466003431378
  O   5.09480868893384     -0.27591711278992     -0.95486936474990
  O   3.87847091947825      1.41076886819279     -2.40835792757249
  C   4.10571067763266      1.94111337812833      0.15557780515366
  C   3.92422395262842      3.27908340315444     -0.17626226198871
  C   4.03073442983225      4.24700210259111      0.82223474302339
  C   4.31963535329737      3.89421770218593      2.14328671425449
  C   4.46830905570973      4.94597278454961      3.21537795546226
  C   4.49779153206150      2.53607664235516      2.44788244115257
  C   4.39498843368438      1.55920544948516      1.46546308924320
  C   2.36444297856047     -1.49449413469319     -1.32077157069993
  C   -1.63019290310630     -2.90355838061980      0.75951375923318
  O   -1.03541878136901     -4.05638268059026      0.35275470167966
  C   -1.12560771870777     -5.21300022672410      1.17968669163657
  C   -2.36367221736376     -2.80265582909487      1.93966022956453
  H   -5.05590924650390     -0.06727318062053      3.13980036429568
  H   -3.57831303524731      0.42491395019684      4.02422674485760
  H   -4.78316614112298     -0.62653663752133      4.80911728724531
  H   -3.28688448336203      0.47494029680105      1.71281236716886
  H   -2.17399969396452      2.15153390671448      0.59675184646686
  H   -2.27231104402548      2.34825960798547     -1.17113999911685
  H   -3.62711837685492      1.59558307223728     -0.29352860215194
  H   -3.23017043282909     -2.57216466688001     -2.03386630212198
  H   -4.76763291765121     -2.03465972793249     -3.90312280256683
  H   -1.67198792673371      0.26061268659074     -5.79575715747932
  H   -0.11029514702214     -0.32634311924472     -3.92528360584806
  H   0.65746263839643      0.74249854275259     -0.33694686243261
  H   1.34030252869186      1.17400281910605     -1.93215770708167
  H   3.71531740542906      3.55126789816589     -1.20344211343021
  H   3.89202723975936      5.29216645143196      0.56493103625264
  H   3.96158128344289      4.64928564325107      4.13787200416446
  H   5.52409617760057      5.10380686545377      3.46120078866770
  H   4.05671197256855      5.90502107669702      2.89397169277192
  H   4.72496075673403      2.24211540209666      3.46785560195369
  H   4.54213009758259      0.51294952626619      1.70436563030173
  H   3.03359537377832     -1.71426304616880     -2.15936721681737
  H   2.46666012871120     -2.28439037213649     -0.57074894204493
  H   -0.67145636189451     -5.03624674111351      2.15983373812213
  H   -0.57012193459075     -5.98944977248426      0.65659364511762
  H   -2.16555798833427     -5.53104412174613      1.30673239457249
  H   -2.49806749886231     -3.63828212411281      2.61079261136417
