60
Coordinates from ORCA-job file E -2654.883147660364
  C      -5.501000      0.738100      3.313000
  O      -4.577400     -0.338000      3.183000
  C      -3.686100     -0.495500      2.110500
  C      -3.623800      0.416000      1.042200
  C      -2.713500      0.220900     -0.013200
  O      -2.616400      1.125000     -1.083100
  C      -3.409800      2.297700     -1.230200
  C      -1.869100     -0.903000      0.004100
  S      -0.723100     -1.174500     -1.305700
  C      -1.446200     -1.845000     -2.756000
  C      -1.268700     -3.201700     -3.052900
  C      -1.840200     -3.747700     -4.206500
  C      -2.588300     -2.937900     -5.068600
  Cl     -3.304600     -3.622600     -6.515900
  C      -2.761600     -1.580300     -4.776000
  C      -2.190500     -1.033800     -3.622500
  C       0.394900      0.188800     -1.603200
  C       1.291600      0.443700     -0.403000
  N       2.497700     -0.015600     -1.101300
  S       3.600800      1.311000     -1.384500
  O       4.679300      0.869800     -2.333900
  O       2.881800      2.487200     -1.989300
  C       4.336300      1.782100      0.144500
  C       3.880800      2.913300      0.835800
  C       4.458000      3.270500      2.058100
  C       5.485300      2.490100      2.610300
  C       6.131300      2.894000      3.902300
  C       5.947300      1.364600      1.910900
  C       5.369300      1.008200      0.688800
  C       1.671000     -0.276200     -2.285300
  C      -1.919500     -1.815500      1.070500
  O      -1.052300     -2.920800      1.056500
  C      -0.997500     -3.919000      2.070100
  C      -2.833400     -1.602000      2.118100
  H      -6.210300      0.738100      2.458500
  H      -4.956700      1.705100      3.359200
  H      -6.076900      0.609900      4.252300
  H      -4.277600      1.275000      1.034600
  H      -3.236200      2.985900     -0.376100
  H      -3.119500      2.815000     -2.167400
  H      -4.484600      2.026000     -1.292900
  H      -0.691600     -3.834700     -2.390400
  H      -1.701200     -4.797900     -4.429000
  H      -3.335200     -0.948300     -5.442000
  H      -2.320700      0.019100     -3.413800
  H       1.077300     -0.206300      0.474000
  H       1.298000      1.520800     -0.124900
  H       3.080100      3.519300      0.431800
  H       4.101800      4.153300      2.574700
  H       6.489100      2.000300      4.456700
  H       6.994500      3.559100      3.691100
  H       5.408600      3.433400      4.551000
  H       6.752200      0.761700      2.312900
  H       5.727200      0.129600      0.167100
  H       1.914000      0.356400     -3.167800
  H       1.682900     -1.359100     -2.539200
  H      -0.723000     -3.460100      3.043300
  H      -0.224400     -4.667100      1.799800
  H      -1.977600     -4.434500      2.151600
  H      -2.892600     -2.291900      2.948800
60
Coordinates from ORCA-job file E -2654.915182484664
  C      -5.427090      0.734225      3.232337
  O      -4.515354     -0.351722      3.164268
  C      -3.648608     -0.498955      2.108646
  C      -3.604821      0.400880      1.037473
  C      -2.696905      0.193318     -0.007100
  O      -2.608713      1.051423     -1.070412
  C      -3.435329      2.199370     -1.178766
  C      -1.835379     -0.917840      0.014473
  S      -0.670194     -1.207844     -1.284472
  C      -1.426303     -1.840399     -2.748439
  C      -1.256259     -3.189962     -3.064644
  C      -1.838749     -3.713548     -4.218145
  C      -2.587509     -2.884455     -5.054889
  Cl     -3.318194     -3.543566     -6.504408
  C      -2.754795     -1.533209     -4.746774
  C      -2.172119     -1.010249     -3.593608
  C       0.402148      0.194247     -1.617380
  C       1.296338      0.485787     -0.404755
  N       2.515348      0.036752     -1.135152
  S       3.611635      1.350886     -1.449560
  O       4.685532      0.863738     -2.359856
  O       2.897295      2.534182     -2.014014
  C       4.322277      1.788587      0.110244
  C       3.866643      2.914694      0.799205
  C       4.423116      3.245209      2.034407
  C       5.426351      2.447903      2.601741
  C       6.052622      2.827788      3.918190
  C       5.881483      1.325320      1.896130
  C       5.328564      0.991300      0.660997
  C       1.679648     -0.269988     -2.329880
  C      -1.886570     -1.811134      1.098112
  O      -1.028400     -2.881732      1.096582
  C      -1.016561     -3.825557      2.157048
  C      -2.793482     -1.598085      2.139502
  H      -6.122018      0.713281      2.378168
  H      -4.887963      1.694326      3.255621
  H      -6.001443      0.627722      4.159221
  H      -4.267759      1.254132      1.017935
  H      -3.259068      2.885578     -0.335987
  H      -3.169508      2.709309     -2.111194
  H      -4.498407      1.912772     -1.217671
  H      -0.674766     -3.833039     -2.415461
  H      -1.707786     -4.760361     -4.461508
  H      -3.331362     -0.891019     -5.401099
  H      -2.289604      0.040100     -3.362562
  H       1.116017     -0.147666      0.484086
  H       1.290306      1.553073     -0.130677
  H       3.084861      3.534788      0.378117
  H       4.069016      4.127508      2.554949
  H       6.385235      1.935028      4.466597
  H       6.924027      3.476992      3.744306
  H       5.336080      3.366930      4.553894
  H       6.668772      0.705082      2.308720
  H       5.682719      0.115489      0.130938
  H       1.911931      0.337640     -3.217324
  H       1.722688     -1.348706     -2.571092
  H      -0.758600     -3.337582      3.109832
  H      -0.251605     -4.574429      1.923560
  H      -1.993092     -4.327396      2.242855
  H      -2.846336     -2.276918      2.980172
60
Coordinates from ORCA-job file E -2654.931526898142
  C      -5.357676      0.746754      3.192417
  O      -4.447711     -0.343080      3.164988
  C      -3.603953     -0.487804      2.114444
  C      -3.575604      0.393074      1.029774
  C      -2.669940      0.164911     -0.010089
  O      -2.585752      0.973931     -1.082541
  C      -3.426978      2.112245     -1.185719
  C      -1.794393     -0.939650      0.026382
  S      -0.607136     -1.266462     -1.253357
  C      -1.407182     -1.842344     -2.735837
  C      -1.258777     -3.185956     -3.076064
  C      -1.857380     -3.677965     -4.233210
  C      -2.597016     -2.818161     -5.041662
  Cl     -3.348953     -3.438198     -6.498006
  C      -2.743165     -1.471272     -4.712159
  C      -2.143280     -0.981907     -3.556156
  C       0.401542      0.181823     -1.630279
  C       1.293290      0.518751     -0.414987
  N       2.524852      0.090373     -1.169274
  S       3.605382      1.390794     -1.513783
  O       4.669592      0.858998     -2.383200
  O       2.896036      2.577491     -2.035012
  C       4.288981      1.795277      0.079537
  C       3.833009      2.917728      0.766986
  C       4.367643      3.220590      2.016795
  C       5.346084      2.405434      2.598009
  C       5.949506      2.759048      3.936684
  C       5.795291      1.285704      1.885675
  C       5.268823      0.974107      0.636161
  C       1.680902     -0.273648     -2.364123
  C      -1.843204     -1.811384      1.133896
  O      -0.985135     -2.855498      1.140686
  C      -0.986381     -3.760995      2.235307
  C      -2.745632     -1.584405      2.171199
  H      -6.051401      0.704910      2.344547
  H      -4.826917      1.705899      3.190824
  H      -5.922285      0.653582      4.119277
  H      -4.242918      1.239549      0.993796
  H      -3.243485      2.813198     -0.363734
  H      -3.170278      2.596090     -2.127177
  H      -4.485243      1.824798     -1.202775
  H      -0.680197     -3.846905     -2.441737
  H      -1.746054     -4.720848     -4.502102
  H      -3.314451     -0.810887     -5.353003
  H      -2.233206      0.064746     -3.297693
  H       1.157374     -0.095802      0.488139
  H       1.268744      1.580209     -0.148546
  H       3.072250      3.551798      0.328075
  H       4.015863      4.101706      2.542783
  H       6.258212      1.861541      4.479630
  H       6.831813      3.394365      3.800188
  H       5.234438      3.300571      4.561831
  H       6.563928      0.648286      2.309471
  H       5.619179      0.102381      0.096698
  H       1.898235      0.309808     -3.262654
  H       1.767519     -1.348304     -2.587112
  H      -0.734677     -3.250823      3.171939
  H      -0.220497     -4.504218      2.016811
  H      -1.956276     -4.261908      2.334128
  H      -2.795353     -2.242044      3.026414
60
Coordinates from ORCA-job file E -2654.939279076423
  C      -5.287141      0.786474      3.179991
  O      -4.377946     -0.307814      3.171496
  C      -3.549425     -0.474112      2.114072
  C      -3.527511      0.377046      1.006471
  C      -2.629064      0.115621     -0.033865
  O      -2.551143      0.883750     -1.132757
  C      -3.381867      2.031099     -1.258563
  C      -1.751539     -0.990208      0.028175
  S      -0.541448     -1.370543     -1.223877
  C      -1.397128     -1.863789     -2.721506
  C      -1.304868     -3.203681     -3.092093
  C      -1.931812     -3.645254     -4.255001
  C      -2.640565     -2.735130     -5.032977
  Cl     -3.430442     -3.290209     -6.497689
  C      -2.728235     -1.390462     -4.675266
  C      -2.098531     -0.953067     -3.514736
  C       0.385945      0.128940     -1.639130
  C       1.266998      0.524506     -0.427003
  N       2.516543      0.138815     -1.189069
  S       3.574913      1.438581     -1.545779
  O       4.637686      0.888339     -2.390676
  O       2.859570      2.627516     -2.028250
  C       4.240107      1.815495      0.072382
  C       3.784314      2.933260      0.765180
  C       4.308393      3.214504      2.024364
  C       5.275971      2.387909      2.606103
  C       5.868083      2.720102      3.956005
  C       5.720467      1.272308      1.884540
  C       5.207468      0.978962      0.625841
  C       1.679412     -0.292882     -2.378123
  C      -1.800177     -1.833771      1.162950
  O      -0.940523     -2.873899      1.184441
  C      -0.932746     -3.752584      2.304376
  C      -2.695866     -1.575072      2.197523
  H      -5.991272      0.726616      2.344098
  H      -4.758623      1.744382      3.150117
  H      -5.835668      0.708926      4.116235
  H      -4.192051      1.223128      0.950126
  H      -3.177420      2.756552     -0.465710
  H      -3.125632      2.473747     -2.218632
  H      -4.442904      1.760980     -1.252084
  H      -0.747425     -3.899793     -2.476249
  H      -1.866272     -4.684292     -4.552190
  H      -3.275550     -0.694911     -5.299466
  H      -2.131627      0.089024     -3.228695
  H       1.179487     -0.072811      0.490850
  H       1.206803      1.585043     -0.170913
  H       3.036978      3.577606      0.318326
  H       3.958531      4.091649      2.559279
  H       6.166798      1.816290      4.491069
  H       6.756558      3.349353      3.842010
  H       5.154175      3.261282      4.580172
  H       6.479355      0.624065      2.310851
  H       5.556203      0.114233      0.074315
  H       1.877087      0.274905     -3.289419
  H       1.829434     -1.362260     -2.582142
  H      -0.673349     -3.222540      3.225600
  H      -0.166528     -4.494110      2.088491
  H      -1.898142     -4.253334      2.425205
  H      -2.746840     -2.204478      3.072704
60
Coordinates from ORCA-job file E -2654.943028705927
  C      -5.163255      0.831883      3.248777
  O      -4.261210     -0.270683      3.223041
  C      -3.471560     -0.451816      2.136791
  C      -3.479317      0.385076      1.020340
  C      -2.616161      0.107780     -0.047453
  O      -2.579309      0.870030     -1.151786
  C      -3.395332      2.034415     -1.237024
  C      -1.739260     -1.002490     -0.001168
  S      -0.521046     -1.429414     -1.245035
  C      -1.398666     -1.895646     -2.756624
  C      -1.393783     -3.251380     -3.079297
  C      -2.022265     -3.690543     -4.243232
  C      -2.641527     -2.758216     -5.067864
  Cl     -3.436288     -3.306193     -6.535490
  C      -2.633879     -1.397685     -4.762822
  C      -2.001123     -0.964328     -3.602064
  C       0.355938      0.097067     -1.698271
  C       1.201536      0.563453     -0.481506
  N       2.479359      0.195203     -1.209209
  S       3.547787      1.474610     -1.559131
  O       4.612046      0.891969     -2.373238
  O       2.854872      2.677886     -2.026756
  C       4.186364      1.827273      0.084173
  C       3.749068      2.957114      0.768310
  C       4.257040      3.219912      2.038431
  C       5.192903      2.368457      2.635301
  C       5.768778      2.681270      3.996241
  C       5.616313      1.240313      1.920248
  C       5.120498      0.962867      0.651249
  C       1.678300     -0.308430     -2.400975
  C      -1.762972     -1.832191      1.148665
  O      -0.903708     -2.874718      1.153464
  C      -0.864044     -3.739368      2.286377
  C      -2.624052     -1.558863      2.206519
  H      -5.896400      0.767490      2.439074
  H      -4.630473      1.785615      3.189701
  H      -5.676547      0.764302      4.205384
  H      -4.139419      1.235448      0.974516
  H      -3.138479      2.755719     -0.456353
  H      -3.172631      2.468799     -2.209121
  H      -4.459460      1.785521     -1.179887
  H      -0.903449     -3.962190     -2.423828
  H      -2.026087     -4.740839     -4.505830
  H      -3.107656     -0.688898     -5.430570
  H      -1.944301      0.084836     -3.355564
  H       1.131390      0.003386      0.459776
  H       1.111020      1.629460     -0.258835
  H       3.032812      3.622731      0.302325
  H       3.922108      4.104860      2.570663
  H       6.035266      1.769725      4.534891
  H       6.676865      3.285718      3.903573
  H       5.061086      3.243214      4.608757
  H       6.348215      0.570785      2.361387
  H       5.455327      0.092686      0.099911
  H       1.883739      0.232452     -3.327314
  H       1.886079     -1.373632     -2.568792
  H      -0.574849     -3.198302      3.191648
  H      -0.105883     -4.482989      2.051011
  H      -1.826026     -4.235437      2.443757
  H      -2.654292     -2.175075      3.092240
60
Coordinates from ORCA-job file E -2654.945429577214
  C      -5.089030      0.868584      3.233976
  O      -4.163476     -0.215351      3.235232
  C      -3.397756     -0.436051      2.134612
  C      -3.454933      0.342405      0.979012
  C      -2.616435      0.033442     -0.101460
  O      -2.645837      0.732299     -1.252200
  C      -3.487507      1.875397     -1.373940
  C      -1.712112     -1.048579     -0.024315
  S      -0.497234     -1.502868     -1.266592
  C      -1.419635     -1.904864     -2.776994
  C      -1.526812     -3.257483     -3.097307
  C      -2.187758     -3.644446     -4.262348
  C      -2.724920     -2.662402     -5.087934
  Cl     -3.562325     -3.141122     -6.557716
  C      -2.602477     -1.306679     -4.783491
  C      -1.937663     -0.926110     -3.621658
  C       0.339073      0.047900     -1.728872
  C       1.145066      0.571418     -0.508852
  N       2.446332      0.226374     -1.197916
  S       3.521645      1.500907     -1.521668
  O       4.587759      0.921016     -2.339996
  O       2.838456      2.718565     -1.973650
  C       4.158657      1.831059      0.130051
  C       3.740220      2.964823      0.820133
  C       4.251878      3.212221      2.092449
  C       5.177284      2.344277      2.682214
  C       5.758820      2.640535      4.043060
  C       5.581260      1.211760      1.962129
  C       5.080596      0.949345      0.691482
  C       1.690017     -0.322835     -2.395279
  C      -1.690548     -1.826806      1.162039
  O      -0.807154     -2.854695      1.193551
  C      -0.715968     -3.662836      2.365447
  C      -2.526510     -1.522887      2.230838
  H      -5.842235      0.747982      2.448392
  H      -4.577395      1.828923      3.112660
  H      -5.574902      0.838286      4.207789
  H      -4.138411      1.172786      0.908803
  H      -3.215021      2.644942     -0.645034
  H      -3.309738      2.256759     -2.377928
  H      -4.543974      1.610129     -1.262481
  H      -1.097412     -4.006065     -2.440886
  H      -2.277886     -4.690406     -4.526587
  H      -3.013099     -0.561756     -5.453700
  H      -1.783339      0.115216     -3.373150
  H       1.078483      0.037308      0.448178
  H       1.020676      1.641605     -0.315768
  H       3.037386      3.645293      0.355224
  H       3.930666      4.098466      2.630812
  H       6.013511      1.721538      4.576730
  H       6.676848      3.231995      3.952632
  H       5.060699      3.211604      4.659854
  H       6.302440      0.528802      2.400179
  H       5.402631      0.078844      0.133209
  H       1.899699      0.211134     -3.326672
  H       1.945551     -1.381328     -2.543083
  H      -0.413072     -3.070147      3.234127
  H       0.051553     -4.402729      2.144543
  H      -1.663851     -4.168809      2.573986
  H      -2.520781     -2.096686      3.145634
60
Coordinates from ORCA-job file E -2654.947528340383
  C      -5.010868      0.888967      3.257155
  O      -4.059724     -0.172407      3.263365
  C      -3.327083     -0.415360      2.143986
  C      -3.443532      0.319190      0.964953
  C      -2.636201     -0.005896     -0.135338
  O      -2.732851      0.644650     -1.311616
  C      -3.602672      1.765053     -1.441110
  C      -1.702053     -1.057047     -0.051945
  S      -0.503675     -1.513961     -1.311801
  C      -1.446909     -1.907725     -2.817640
  C      -1.673406     -3.257565     -3.083077
  C      -2.349512     -3.631177     -4.243731
  C      -2.776853     -2.638174     -5.119822
  Cl     -3.632358     -3.097223     -6.586353
  C      -2.529202     -1.288377     -4.870138
  C      -1.851699     -0.921559     -3.711106
  C       0.325974      0.043172     -1.779719
  C       1.090334      0.613938     -0.554431
  N       2.411504      0.265281     -1.195396
  S       3.514588      1.517161     -1.489726
  O       4.580971      0.922818     -2.300656
  O       2.863109      2.755220     -1.939326
  C       4.138122      1.823419      0.172892
  C       3.744663      2.967489      0.860473
  C       4.249670      3.198430      2.138709
  C       5.147015      2.305407      2.734464
  C       5.723483      2.583570      4.100699
  C       5.525917      1.162188      2.017163
  C       5.030480      0.915886      0.741305
  C       1.701251     -0.315725     -2.401693
  C      -1.622622     -1.796295      1.156407
  O      -0.710587     -2.801454      1.189808
  C      -0.553474     -3.565452      2.384174
  C      -2.426875     -1.478399      2.244747
  H      -5.787218      0.722090      2.502975
  H      -4.526303      1.855491      3.083755
  H      -5.462296      0.883149      4.247992
  H      -4.151513      1.128146      0.889121
  H      -3.317106      2.566309     -0.752183
  H      -3.474916      2.111924     -2.465048
  H      -4.647745      1.482239     -1.277266
  H      -1.325655     -4.014319     -2.388452
  H      -2.532881     -4.674258     -4.467989
  H      -2.853873     -0.538410     -5.580801
  H      -1.591064      0.108926     -3.500437
  H       1.004739      0.111749      0.417975
  H       0.949582      1.688997     -0.399334
  H       3.067132      3.668305      0.388191
  H       3.946900      4.091492      2.676340
  H       5.949247      1.657299      4.635162
  H       6.658261      3.150127      4.019632
  H       5.036040      3.173332      4.712151
  H       6.223540      0.459210      2.461483
  H       5.334826      0.038787      0.183377
  H       1.928989      0.206914     -3.335938
  H       1.980933     -1.371081     -2.526864
  H      -0.234290     -2.933824      3.219092
  H       0.224772     -4.293190      2.159908
  H      -1.479542     -4.087215      2.645676
  H      -2.375488     -2.020230      3.177304
60
Coordinates from ORCA-job file E -2654.949438986828
  C      -4.932224      0.893808      3.263590
  O      -3.946237     -0.134519      3.278758
  C      -3.242987     -0.398142      2.146061
  C      -3.422158      0.286899      0.945529
  C      -2.642758     -0.054738     -0.169773
  O      -2.800689      0.540696     -1.368079
  C      -3.704033      1.631572     -1.509899
  C      -1.674103     -1.067843     -0.078301
  S      -0.509864     -1.522278     -1.368339
  C      -1.492272     -1.902607     -2.858500
  C      -1.832867     -3.234950     -3.084174
  C      -2.537896     -3.580607     -4.235860
  C      -2.873698     -2.578721     -5.142676
  Cl     -3.762910     -3.002205     -6.600371
  C      -2.508248     -1.249789     -4.930995
  C      -1.805703     -0.910494     -3.778340
  C       0.331240      0.031544     -1.837398
  C       1.049874      0.653835     -0.610991
  N       2.388594      0.282629     -1.191738
  S       3.535168      1.495695     -1.455235
  O       4.604494      0.869262     -2.240541
  O       2.935375      2.753209     -1.927922
  C       4.127774      1.795540      0.218907
  C       3.758432      2.960363      0.884189
  C       4.242152      3.189788      2.170877
  C       5.096466      2.274913      2.795788
  C       5.652355      2.550885      4.170889
  C       5.452123      1.110304      2.100786
  C       4.976230      0.865431      0.817384
  C       1.729205     -0.328116     -2.405706
  C      -1.529061     -1.760089      1.149888
  O      -0.583064     -2.733679      1.184241
  C      -0.353377     -3.445288      2.398418
  C      -2.304776     -1.428371      2.254442
  H      -5.726804      0.670617      2.543650
  H      -4.486154      1.867391      3.035101
  H      -5.350915      0.914790      4.268430
  H      -4.159369      1.068794      0.862661
  H      -3.418273      2.465462     -0.860929
  H      -3.622727      1.942394     -2.549958
  H      -4.734792      1.326752     -1.300657
  H      -1.551559     -3.999840     -2.368185
  H      -2.811229     -4.609530     -4.432192
  H      -2.764684     -0.495204     -5.664598
  H      -1.452266      0.097757     -3.584315
  H       0.926922      0.194560      0.377821
  H       0.902801      1.734739     -0.509492
  H       3.115751      3.677643      0.388406
  H       3.956974      4.098334      2.691727
  H       5.835908      1.624663      4.721274
  H       6.607155      3.084948      4.102938
  H       4.972523      3.171273      4.760074
  H       6.115667      0.390025      2.568737
  H       5.263629     -0.027887      0.276301
  H       1.982172      0.178442     -3.342629
  H       2.017418     -1.383878     -2.503572
  H      -0.023680     -2.770970      3.195051
  H       0.439741     -4.155797      2.171534
  H      -1.250482     -3.986207      2.716007
  H      -2.204288     -1.933210      3.203403
60
Coordinates from ORCA-job file E -2654.951164303526
  C      -4.854632      0.855062      3.277373
  O      -3.845382     -0.150048      3.287575
  C      -3.159934     -0.414151      2.145631
  C      -3.378641      0.250419      0.939943
  C      -2.615169     -0.091511     -0.185947
  O      -2.804128      0.480930     -1.390446
  C      -3.723685      1.557854     -1.530875
  C      -1.626931     -1.084197     -0.099824
  S      -0.507992     -1.540006     -1.423947
  C      -1.546239     -1.884630     -2.890017
  C      -2.014635     -3.182891     -3.073474
  C      -2.756904     -3.489083     -4.212453
  C      -2.996547     -2.485384     -5.148441
  Cl     -3.928863     -2.862143     -6.592115
  C      -2.501339     -1.193714     -4.977595
  C      -1.765020     -0.892711     -3.835522
  C       0.361047     -0.004590     -1.898448
  C       1.032724      0.677231     -0.679176
  N       2.386074      0.261152     -1.185334
  S       3.585748      1.420289     -1.431957
  O       4.659880      0.734207     -2.158786
  O       3.052132      2.682964     -1.966688
  C       4.125565      1.756019      0.251904
  C       3.777182      2.958742      0.858297
  C       4.222192      3.220782      2.152594
  C       5.017868      2.300717      2.843289
  C       5.534265      2.611068      4.226878
  C       5.353741      1.097096      2.206971
  C       4.915219      0.819444      0.916982
  C       1.777696     -0.387223     -2.401222
  C      -1.438388     -1.754795      1.133006
  O      -0.474777     -2.709170      1.156289
  C      -0.198076     -3.394853      2.375018
  C      -2.196235     -1.422193      2.249494
  H      -5.658616      0.602448      2.578107
  H      -4.436187      1.834747      3.024589
  H      -5.253120      0.882951      4.290007
  H      -4.133804      1.015452      0.860886
  H      -3.439593      2.403300     -0.896540
  H      -3.665452      1.856476     -2.575867
  H      -4.746746      1.241664     -1.301926
  H      -1.804121     -3.952006     -2.337662
  H      -3.131236     -4.491194     -4.378583
  H      -2.686919     -0.439107     -5.732443
  H      -1.314080      0.081083     -3.658478
  H       0.856947      0.277482      0.326615
  H       0.894188      1.763575     -0.649478
  H       3.180626      3.678982      0.311802
  H       3.952760      4.158912      2.627322
  H       5.662400      1.701976      4.819465
  H       6.510472      3.106390      4.173654
  H       4.858132      3.279224      4.765566
  H       5.972182      0.372157      2.726572
  H       5.188408     -0.104513      0.421858
  H       2.065899      0.089916     -3.343311
  H       2.057991     -1.447722     -2.458610
  H       0.139216     -2.700299      3.150638
  H       0.602665     -4.093387      2.139069
  H      -1.074823     -3.947925      2.726378
  H      -2.065003     -1.911270      3.202893
60
Coordinates from ORCA-job file E -2654.952903108184
  C      -4.743783      0.815364      3.300944
  O      -3.726550     -0.181527      3.293918
  C      -3.058841     -0.439733      2.141190
  C      -3.304142      0.222878      0.938986
  C      -2.556685     -0.115853     -0.197899
  O      -2.756364      0.459851     -1.398869
  C      -3.673644      1.540479     -1.525097
  C      -1.562467     -1.105885     -0.127872
  S      -0.495084     -1.563032     -1.487583
  C      -1.601722     -1.865339     -2.917262
  C      -2.183245     -3.121811     -3.052302
  C      -2.971749     -3.391824     -4.168997
  C      -3.141191     -2.397904     -5.130802
  Cl     -4.129252     -2.733975     -6.547325
  C      -2.533198     -1.150148     -5.007418
  C      -1.752532     -0.884179     -3.886583
  C       0.409368     -0.059753     -1.974425
  C       1.027459      0.694462     -0.772321
  N       2.394247      0.227202     -1.184997
  S       3.642274      1.334020     -1.415978
  O       4.720057      0.587668     -2.073133
  O       3.171287      2.589077     -2.020540
  C       4.117110      1.719168      0.276222
  C       3.783960      2.958552      0.814147
  C       4.171483      3.260381      2.118259
  C       4.894808      2.343631      2.887964
  C       5.347773      2.694441      4.284810
  C       5.218554      1.103254      2.319486
  C       4.836623      0.785573      1.020541
  C       1.843819     -0.469951     -2.397830
  C      -1.342061     -1.769486      1.102542
  O      -0.372744     -2.715519      1.107289
  C      -0.061237     -3.390074      2.323647
  C      -2.082991     -1.437952      2.231145
  H      -5.557631      0.556824      2.615670
  H      -4.338225      1.798640      3.041686
  H      -5.125225      0.839942      4.320030
  H      -4.064605      0.983920      0.872426
  H      -3.383552      2.380616     -0.886633
  H      -3.622870      1.845552     -2.568438
  H      -4.696040      1.225832     -1.291521
  H      -2.025429     -3.886905     -2.299112
  H      -3.435727     -4.361269     -4.299181
  H      -2.668591     -0.403006     -5.780246
  H      -1.220054      0.053121     -3.732574
  H       0.788261      0.369292      0.246435
  H       0.905449      1.781670     -0.829707
  H       3.241221      3.674452      0.209151
  H       3.911949      4.226650      2.539147
  H       5.409222      1.807877      4.920343
  H       6.343091      3.152302      4.265538
  H       4.669014      3.408041      4.757559
  H       5.781386      0.379759      2.900740
  H       5.099197     -0.169021      0.580883
  H       2.173916     -0.029958     -3.344047
  H       2.112161     -1.534473     -2.404159
  H       0.287245     -2.687138      3.086449
  H       0.740293     -4.082563      2.074025
  H      -0.923646     -3.949152      2.699785
  H      -1.930150     -1.923062      3.183393
60
Coordinates from ORCA-job file E -2654.954704247485
  C      -4.721173      0.764473      3.271591
  O      -3.684768     -0.212737      3.265838
  C      -3.011390     -0.457217      2.113907
  C      -3.271526      0.198930      0.910647
  C      -2.514537     -0.127514     -0.222266
  O      -2.708691      0.450527     -1.423313
  C      -3.640804      1.518386     -1.555267
  C      -1.501603     -1.103944     -0.151242
  S      -0.463335     -1.551539     -1.530376
  C      -1.633786     -1.845194     -2.915035
  C      -2.298886     -3.064584     -2.972677
  C      -3.131538     -3.334423     -4.056985
  C      -3.260157     -2.380893     -5.064307
  Cl     -4.301416     -2.723992     -6.440704
  C      -2.571206     -1.170566     -5.017441
  C      -1.747802     -0.903616     -3.927989
  C       0.452527     -0.076381     -2.036478
  C       1.023805      0.751612     -0.862844
  N       2.402886      0.259420     -1.198596
  S       3.674557      1.344938     -1.408775
  O       4.748442      0.580877     -2.047689
  O       3.232109      2.604893     -2.020473
  C       4.120271      1.718401      0.293205
  C       3.800676      2.964903      0.823614
  C       4.158527      3.257136      2.138438
  C       4.836867      2.323629      2.928587
  C       5.255467      2.662229      4.339693
  C       5.148901      1.077460      2.367089
  C       4.797175      0.769091      1.057462
  C       1.902386     -0.483022     -2.404977
  C      -1.262410     -1.754992      1.081916
  O      -0.277789     -2.681694      1.087101
  C       0.049508     -3.341943      2.307436
  C      -2.012363     -1.431760      2.208122
  H      -5.529611      0.491294      2.585846
  H      -4.335328      1.755848      3.013257
  H      -5.103642      0.781324      4.290332
  H      -4.045619      0.946094      0.843194
  H      -3.374511      2.357840     -0.905833
  H      -3.578298      1.831226     -2.595551
  H      -4.661872      1.187072     -1.340158
  H      -2.173251     -3.801973     -2.186400
  H      -3.662136     -4.275636     -4.127193
  H      -2.678905     -0.453763     -5.822610
  H      -1.158997      0.006874     -3.821329
  H       0.737105      0.492365      0.161883
  H       0.908062      1.832445     -0.998682
  H       3.289482      3.692829      0.205852
  H       3.909022      4.229021      2.552535
  H       5.275382      1.773947      4.975346
  H       6.261307      3.096104      4.352044
  H       4.579170      3.390682      4.792476
  H       5.677848      0.340396      2.963201
  H       5.049162     -0.192469      0.626639
  H       2.252810     -0.064024     -3.353082
  H       2.173938     -1.545585     -2.375648
  H       0.384412     -2.627455      3.065343
  H       0.864542     -4.019265      2.060780
  H      -0.799962     -3.916505      2.689533
  H      -1.849036     -1.909582      3.162512
60
Coordinates from ORCA-job file E -2654.956779732535
  C      -4.627325      0.745284      3.263718
  O      -3.597301     -0.238916      3.244456
  C      -2.927818     -0.474100      2.087089
  C      -3.190842      0.194955      0.891179
  C      -2.436687     -0.123195     -0.244654
  O      -2.621137      0.477356     -1.436988
  C      -3.548950      1.551207     -1.556963
  C      -1.429114     -1.111042     -0.189655
  S      -0.423880     -1.558797     -1.591514
  C      -1.667732     -1.835818     -2.919511
  C      -2.406494     -3.013541     -2.892955
  C      -3.293527     -3.284273     -3.933605
  C      -3.401808     -2.376724     -4.983775
  Cl     -4.510515     -2.726309     -6.305641
  C      -2.641012     -1.209171     -5.021575
  C      -1.764176     -0.940559     -3.974840
  C       0.510672     -0.124321     -2.120053
  C       1.023485      0.785553     -0.982387
  N       2.417806      0.277321     -1.219840
  S       3.706153      1.355491     -1.397835
  O       4.795116      0.578135     -1.990586
  O       3.293779      2.614557     -2.029587
  C       4.094995      1.729393      0.317724
  C       3.775918      2.982133      0.833888
  C       4.092117      3.271983      2.160027
  C       4.727052      2.330212      2.976263
  C       5.102126      2.665270      4.400046
  C       5.038870      1.078326      2.428487
  C       4.729411      0.772260      1.108158
  C       1.977846     -0.522080     -2.414558
  C      -1.184445     -1.769791      1.038158
  O      -0.205544     -2.702082      1.030159
  C       0.126028     -3.371652      2.245022
  C      -1.930344     -1.450214      2.169320
  H      -5.439593      0.486095      2.576998
  H      -4.235650      1.737189      3.015745
  H      -5.006687      0.752982      4.283854
  H      -3.960514      0.947567      0.834726
  H      -3.286180      2.376905     -0.888631
  H      -3.474249      1.882787     -2.590682
  H      -4.573136      1.219757     -1.357500
  H      -2.298275     -3.718686     -2.075049
  H      -3.882903     -4.192755     -3.936491
  H      -2.735664     -0.526813     -5.857574
  H      -1.124315     -0.059848     -3.929335
  H       0.681084      0.597405      0.040678
  H       0.918898      1.853911     -1.201171
  H       3.298649      3.716625      0.197107
  H       3.844470      4.249214      2.562448
  H       5.084002      1.778115      5.037552
  H       6.114281      3.081794      4.446903
  H       4.422541      3.405999      4.827319
  H       5.535532      0.334424      3.043792
  H       4.982323     -0.194550      0.689499
  H       2.357503     -0.131252     -3.363403
  H       2.259039     -1.579131     -2.335596
  H       0.467048     -2.663096      3.005729
  H       0.937261     -4.050406      1.989579
  H      -0.723553     -3.945501      2.628176
  H      -1.764636     -1.935582      3.119655
60
Coordinates from ORCA-job file E -2654.958923379159
  C      -4.523946      0.735112      3.262958
  O      -3.510936     -0.266551      3.224780
  C      -2.845868     -0.492100      2.060412
  C      -3.102810      0.200742      0.876529
  C      -2.353639     -0.106682     -0.264268
  O      -2.522176      0.531940     -1.440744
  C      -3.438902      1.618411     -1.539776
  C      -1.362584     -1.114039     -0.233510
  S      -0.378303     -1.561396     -1.655337
  C      -1.692481     -1.827744     -2.922547
  C      -2.484798     -2.966385     -2.807472
  C      -3.426747     -3.247385     -3.796719
  C      -3.537731     -2.390757     -4.887576
  Cl     -4.715863     -2.755678     -6.145170
  C      -2.726262     -1.263286     -5.014420
  C      -1.793214     -0.985733     -4.019097
  C       0.580673     -0.184119     -2.203371
  C       1.035860      0.813304     -1.117370
  N       2.441769      0.294184     -1.246495
  S       3.740622      1.375312     -1.390255
  O       4.853710      0.589403     -1.923126
  O       3.356321      2.631786     -2.044114
  C       4.064158      1.753431      0.338416
  C       3.740201      3.008911      0.844162
  C       4.011438      3.292573      2.181844
  C       4.604927      2.341879      3.019147
  C       4.933383      2.668405      4.455205
  C       4.921233      1.087284      2.480809
  C       4.657741      0.787826      1.149781
  C       2.060416     -0.569153     -2.420159
  C      -1.121488     -1.791469      0.984462
  O      -0.154901     -2.738644      0.958032
  C       0.171688     -3.432756      2.161512
  C      -1.860651     -1.479770      2.123041
  H      -5.341782      0.502668      2.572907
  H      -4.114760      1.724243      3.031413
  H      -4.901249      0.731518      4.284184
  H      -3.859597      0.967208      0.836671
  H      -3.174998      2.421517     -0.844542
  H      -3.347435      1.978185     -2.562884
  H      -4.468127      1.291184     -1.360062
  H      -2.378154     -3.634176     -1.958565
  H      -4.057548     -4.125067     -3.727436
  H      -2.824128     -0.619350     -5.879852
  H      -1.117158     -0.132993     -4.049133
  H       0.636716      0.699953     -0.103641
  H       0.951085      1.863347     -1.419693
  H       3.295914      3.750228      0.191507
  H       3.761765      4.272273      2.576789
  H       4.880127      1.779340      5.088602
  H       5.949155      3.070612      4.539442
  H       4.248899      3.417484      4.860125
  H       5.386374      0.335947      3.111625
  H       4.914950     -0.181169      0.738791
  H       2.471407     -0.211819     -3.369503
  H       2.354146     -1.616383     -2.282175
  H       0.522979     -2.740556      2.932682
  H       0.973676     -4.117638      1.892433
  H      -0.684992     -4.001576      2.536830
  H      -1.698106     -1.981832      3.065419
60
Coordinates from ORCA-job file E -2654.961058700520
  C      -4.389617      0.724083      3.280387
  O      -3.405046     -0.304476      3.217096
  C      -2.749190     -0.522778      2.045004
  C      -2.993109      0.200962      0.876537
  C      -2.254908     -0.101965     -0.271866
  O      -2.400928      0.574048     -1.431712
  C      -3.291746      1.684315     -1.506285
  C      -1.294078     -1.139660     -0.268967
  S      -0.342355     -1.589007     -1.714532
  C      -1.719327     -1.818134     -2.926372
  C      -2.571302     -2.903393     -2.738099
  C      -3.559901     -3.171253     -3.684679
  C      -3.657288     -2.358044     -4.809051
  Cl     -4.893568     -2.710354     -6.014000
  C      -2.788350     -1.285105     -5.009259
  C      -1.809609     -1.019532     -4.055062
  C       0.641121     -0.261119     -2.274819
  C       1.039766      0.818268     -1.249109
  N       2.448664      0.290281     -1.265653
  S       3.760112      1.364764     -1.379292
  O       4.889293      0.561662     -1.847814
  O       3.409811      2.611635     -2.069110
  C       4.017752      1.768236      0.355039
  C       3.690604      3.034400      0.830609
  C       3.914624      3.333295      2.173909
  C       4.463258      2.387181      3.046371
  C       4.742299      2.728831      4.488889
  C       4.783199      1.121361      2.537585
  C       4.567076      0.806856      1.201890
  C       2.129647     -0.636731     -2.410142
  C      -1.061956     -1.843221      0.935205
  O      -0.119981     -2.814784      0.884181
  C       0.197259     -3.539321      2.072685
  C      -1.788092     -1.534400      2.083446
  H      -5.215695      0.529967      2.588181
  H      -3.953308      1.706217      3.068816
  H      -4.763734      0.708820      4.302809
  H      -3.728028      0.989193      0.856706
  H      -3.014658      2.460516     -0.785902
  H      -3.182771      2.070440     -2.518055
  H      -4.329539      1.376066     -1.343101
  H      -2.476327     -3.540493     -1.864533
  H      -4.237343     -4.006641     -3.556630
  H      -2.877601     -0.673624     -5.898735
  H      -1.091368     -0.206610     -4.144500
  H       0.582023      0.780838     -0.254647
  H       0.980594      1.842781     -1.634117
  H       3.281542      3.772186      0.151392
  H       3.663873      4.321800      2.545448
  H       4.652139      1.849010      5.131184
  H       5.760081      3.117707      4.606323
  H       4.053874      3.492826      4.857826
  H       5.214869      0.373061      3.195320
  H       4.827988     -0.170828      0.814405
  H       2.576146     -0.316989     -3.357042
  H       2.427390     -1.672466     -2.210410
  H       0.569714     -2.870115      2.854202
  H       0.980711     -4.238325      1.785477
  H      -0.671035     -4.093984      2.442703
  H      -1.633671     -2.058257      3.015371
60
Coordinates from ORCA-job file E -2654.962839234039
  C      -4.229609      0.715556      3.353437
  O      -3.297787     -0.356954      3.243844
  C      -2.660401     -0.565982      2.056855
  C      -2.876675      0.209134      0.916003
  C      -2.164116     -0.084073     -0.252502
  O      -2.285210      0.655317     -1.380403
  C      -3.133226      1.801032     -1.400155
  C      -1.264846     -1.162775     -0.300151
  S      -0.317624     -1.629559     -1.766896
  C      -1.731380     -1.811599     -2.949809
  C      -2.629568     -2.853869     -2.716690
  C      -3.646469     -3.110850     -3.634962
  C      -3.727416     -2.328742     -4.783265
  Cl     -4.997954     -2.662032     -5.958400
  C      -2.816620     -1.301618     -5.028553
  C      -1.808600     -1.047564     -4.100796
  C       0.695907     -0.378644     -2.317372
  C       1.044508      0.789568     -1.378631
  N       2.445671      0.250216     -1.264748
  S       3.768306      1.316679     -1.359632
  O       4.917253      0.482027     -1.724356
  O       3.463784      2.540972     -2.115021
  C       3.959594      1.793072      0.368586
  C       3.637338      3.077515      0.790786
  C       3.820534      3.415361      2.131592
  C       4.324272      2.488141      3.050173
  C       4.562527      2.868281      4.488496
  C       4.639038      1.200379      2.593439
  C       4.462910      0.848216      1.261732
  C       2.180630     -0.750339     -2.365723
  C      -1.054563     -1.914337      0.876807
  O      -0.152133     -2.928254      0.779602
  C       0.149647     -3.712833      1.933998
  C      -1.748595     -1.621846      2.046744
  H      -5.068942      0.586152      2.661354
  H      -3.744336      1.680866      3.171970
  H      -4.596527      0.682011      4.378486
  H      -3.570157      1.034129      0.933270
  H      -2.822106      2.530531     -0.644958
  H      -3.010769      2.230749     -2.392844
  H      -4.180734      1.522631     -1.245131
  H      -2.547480     -3.467261     -1.825281
  H      -4.356055     -3.911650     -3.468095
  H      -2.893905     -0.714823     -5.935561
  H      -1.065882     -0.270523     -4.256345
  H       0.531866      0.833096     -0.410443
  H       1.029051      1.784627     -1.838886
  H       3.265479      3.799570      0.073667
  H       3.575475      4.418878      2.464415
  H       4.436420      2.008802      5.152599
  H       5.583994      3.241981      4.628040
  H       3.878201      3.656380      4.813185
  H       5.035960      0.466628      3.288059
  H       4.720592     -0.143385      0.910145
  H       2.674430     -0.480927     -3.306202
  H       2.484202     -1.765661     -2.085135
  H       0.560526     -3.090506      2.735309
  H       0.899151     -4.432264      1.607251
  H      -0.738878     -4.243470      2.291563
  H      -1.608702     -2.186158      2.957041
60
Coordinates from ORCA-job file E -2654.965130709500
  C      -4.143877      0.664692      3.360593
  O      -3.236410     -0.426449      3.234894
  C      -2.597627     -0.625131      2.049255
  C      -2.794552      0.175113      0.921998
  C      -2.079880     -0.113090     -0.246031
  O      -2.169190      0.644963     -1.363805
  C      -2.992803      1.808193     -1.373939
  C      -1.205068     -1.213334     -0.308285
  S      -0.300198     -1.666642     -1.799228
  C      -1.755650     -1.794658     -2.941617
  C      -2.716826     -2.764400     -2.661800
  C      -3.764329     -2.974893     -3.556626
  C      -3.812513     -2.222496     -4.726846
  Cl     -5.123262     -2.502648     -5.870766
  C      -2.839019     -1.268446     -5.017864
  C      -1.800517     -1.059237     -4.112866
  C       0.741025     -0.440906     -2.354394
  C       1.051781      0.787708     -1.485995
  N       2.439130      0.246968     -1.272413
  S       3.779638      1.288129     -1.347201
  O       4.922308      0.432264     -1.676829
  O       3.508775      2.498458     -2.135271
  C       3.932414      1.797641      0.373954
  C       3.621475      3.098657      0.752637
  C       3.769049      3.469708      2.089004
  C       4.224834      2.559355      3.048124
  C       4.423581      2.975439      4.483872
  C       4.530089      1.254621      2.635634
  C       4.389672      0.869159      1.308613
  C       2.228972     -0.808129     -2.328097
  C      -1.009889     -1.988328      0.855193
  O      -0.133972     -3.019049      0.741265
  C       0.147750     -3.824948      1.885212
  C      -1.704036     -1.698149      2.026681
  H      -4.981639      0.569227      2.661650
  H      -3.636562      1.622494      3.202154
  H      -4.518133      0.619281      4.382182
  H      -3.471096      1.013891      0.950449
  H      -2.679936      2.517064     -0.600393
  H      -2.848171      2.253627     -2.356405
  H      -4.048191      1.549497     -1.240542
  H      -2.662505     -3.355985     -1.753419
  H      -4.525452     -3.718253     -3.354192
  H      -2.893029     -0.702363     -5.939673
  H      -1.010383     -0.332834     -4.289849
  H       0.486932      0.904712     -0.554858
  H       1.067900      1.742820     -2.023217
  H       3.284930      3.807852      0.006106
  H       3.532741      4.486435      2.386252
  H       4.258098      2.138192      5.166948
  H       5.446638      3.333646      4.647008
  H       3.744263      3.784326      4.763571
  H       4.891018      0.533163      3.362180
  H       4.639411     -0.136923      0.994000
  H       2.754681     -0.578481     -3.261161
  H       2.516662     -1.811108     -1.994506
  H       0.569745     -3.222740      2.695739
  H       0.882239     -4.555879      1.551389
  H      -0.751806     -4.341721      2.235023
  H      -1.579231     -2.280075      2.928008
60
Coordinates from ORCA-job file E -2654.966273635650
  C      -4.190445      0.548576      3.403987
  O      -3.304761     -0.557902      3.270098
  C      -2.654391     -0.744764      2.096002
  C      -2.827609      0.072813      0.978686
  C      -2.103360     -0.210529     -0.188192
  O      -2.188034      0.534850     -1.313965
  C      -3.028523      1.683752     -1.333082
  C      -1.245548     -1.312813     -0.247815
  S      -0.346161     -1.743511     -1.757451
  C      -1.761691     -1.786716     -2.950213
  C      -2.819820     -2.661447     -2.733480
  C      -3.828590     -2.761016     -3.687194
  C      -3.743141     -1.989816     -4.847508
  Cl     -5.011325     -2.119329     -6.060926
  C      -2.672968     -1.132304     -5.072125
  C      -1.668570     -1.037030     -4.110394
  C       0.732180     -0.505944     -2.276934
  C       1.015422      0.760830     -1.463452
  N       2.395487      0.229827     -1.201710
  S       3.744940      1.227272     -1.321447
  O       4.861474      0.348053     -1.687348
  O       3.458820      2.411722     -2.144358
  C       3.966401      1.812685      0.367053
  C       3.681484      3.137281      0.676906
  C       3.870359      3.587552      1.983228
  C       4.342244      2.731598      2.981958
  C       4.581310      3.236088      4.386572
  C       4.623065      1.399650      2.641327
  C       4.440672      0.935048      1.343237
  C       2.223492     -0.874283     -2.201502
  C      -1.073959     -2.115227      0.899780
  O      -0.224675     -3.161535      0.777490
  C       0.019107     -3.985406      1.913556
  C      -1.775548     -1.836287      2.068985
  H      -5.018318      0.483867      2.691040
  H      -3.662161      1.498470      3.273345
  H      -4.583277      0.492111      4.417118
  H      -3.498305      0.916742      1.006748
  H      -2.732064      2.403765     -0.564111
  H      -2.895260      2.128555     -2.316951
  H      -4.079815      1.408461     -1.202506
  H      -2.872599     -3.258527     -1.828729
  H      -4.667659     -3.428682     -3.537261
  H      -2.624715     -0.550359     -5.984716
  H      -0.805069     -0.384409     -4.231732
  H       0.433813      0.920579     -0.552950
  H       1.032268      1.683704     -2.052423
  H       3.328882      3.803996     -0.100364
  H       3.651664      4.623000      2.224548
  H       4.424052      2.448021      5.126287
  H       5.611132      3.591151      4.501346
  H       3.919148      4.069311      4.631214
  H       4.994371      0.720612      3.402479
  H       4.668109     -0.091600      1.083645
  H       2.772113     -0.682719     -3.129270
  H       2.500734     -1.862829     -1.823362
  H       0.441443     -3.403278      2.738013
  H       0.742210     -4.728556      1.585097
  H      -0.895702     -4.486900      2.244433
  H      -1.672336     -2.436224      2.960787
60
Coordinates from ORCA-job file E -2654.968260838181
  C      -3.986831      0.540741      3.476630
  O      -3.165492     -0.608912      3.296583
  C      -2.542225     -0.796727      2.104614
  C      -2.684990      0.061646      1.014124
  C      -1.994789     -0.228230     -0.170904
  O      -2.056962      0.559575     -1.271814
  C      -2.849987      1.743300     -1.248932
  C      -1.197487     -1.376259     -0.278014
  S      -0.314011     -1.802019     -1.808400
  C      -1.765512     -1.755616     -2.959388
  C      -2.871204     -2.558569     -2.696252
  C      -3.919888     -2.604702     -3.611974
  C      -3.830688     -1.851952     -4.782292
  Cl     -5.153202     -1.909065     -5.943653
  C      -2.716568     -1.065179     -5.054842
  C      -1.671600     -1.025371     -4.132093
  C       0.817297     -0.644146     -2.317198
  C       1.070411      0.680950     -1.592365
  N       2.429474      0.164228     -1.208587
  S       3.791311      1.158633     -1.308326
  O       4.924633      0.260261     -1.546874
  O       3.559189      2.304084     -2.198754
  C       3.912815      1.818608      0.363722
  C       3.618619      3.155979      0.601737
  C       3.733949      3.656943      1.898270
  C       4.143184      2.840030      2.956224
  C       4.304626      3.397488      4.350413
  C       4.433916      1.494769      2.685886
  C       4.323965      0.979342      1.399836
  C       2.299038     -1.010031     -2.141695
  C      -1.056417     -2.217910      0.846406
  O      -0.261946     -3.304357      0.684573
  C      -0.045882     -4.172044      1.795010
  C      -1.727681     -1.932908      2.032660
  H      -4.828570      0.543028      2.776614
  H      -3.408469      1.463625      3.363264
  H      -4.365513      0.475568      4.495035
  H      -3.305859      0.940736      1.078188
  H      -2.514926      2.429076     -0.464417
  H      -2.706487      2.208624     -2.222161
  H      -3.910252      1.508169     -1.112255
  H      -2.930874     -3.139943     -1.782133
  H      -4.793293     -3.216411     -3.423054
  H      -2.665376     -0.495279     -5.974484
  H      -0.776399     -0.434113     -4.304083
  H       0.440184      0.912453     -0.729870
  H       1.137108      1.558994     -2.243836
  H       3.316489      3.791865     -0.221266
  H       3.508107      4.702014      2.085258
  H       4.099156      2.639076      5.109645
  H       5.328992      3.751326      4.511112
  H       3.635593      4.243419      4.523480
  H       4.756290      0.844937      3.493539
  H       4.560359     -0.057723      1.194810
  H       2.894514     -0.880119     -3.051381
  H       2.557750     -1.967599     -1.681195
  H       0.415516     -3.635803      2.629787
  H       0.634574     -4.941222      1.435176
  H      -0.981191     -4.635767      2.124333
  H      -1.646489     -2.561509      2.907060
60
Coordinates from ORCA-job file E -2654.969110248093
  C      -3.917508      0.454846      3.548994
  O      -3.141134     -0.719190      3.331426
  C      -2.527694     -0.893601      2.131485
  C      -2.640293      0.001946      1.067780
  C      -1.965082     -0.280319     -0.127724
  O      -2.020530      0.531965     -1.213094
  C      -2.808384      1.718497     -1.167697
  C      -1.206116     -1.451147     -0.269561
  S      -0.307993     -1.846199     -1.813439
  C      -1.752019     -1.716225     -2.963225
  C      -2.913691     -2.432871     -2.691038
  C      -3.964952     -2.411215     -3.604719
  C      -3.826145     -1.676559     -4.781120
  Cl     -5.155626     -1.641983     -5.935297
  C      -2.657594     -0.977143     -5.063973
  C      -1.608992     -1.006210     -4.144372
  C       0.877036     -0.746791     -2.291206
  C       1.114986      0.628250     -1.663024
  N       2.449865      0.129294     -1.180850
  S       3.827626      1.103647     -1.286572
  O       4.961172      0.189188     -1.448604
  O       3.629371      2.212281     -2.229121
  C       3.911956      1.839945      0.354926
  C       3.628390      3.190833      0.518016
  C       3.721938      3.755632      1.789594
  C       4.098995      2.988873      2.895898
  C       4.239925      3.615467      4.262269
  C       4.377283      1.628017      2.700753
  C       4.289371      1.049314      1.440299
  C       2.345912     -1.112579     -2.028847
  C      -1.098668     -2.332096      0.827691
  O      -0.351285     -3.446951      0.629303
  C      -0.180375     -4.363564      1.707828
  C      -1.759891     -2.058616      2.022404
  H      -4.762792      0.508866      2.855068
  H      -3.305450      1.358258      3.457457
  H      -4.292753      0.374995      4.567695
  H      -3.230856      0.899360      1.158831
  H      -2.462006      2.395743     -0.380537
  H      -2.674994      2.193793     -2.137630
  H      -3.867599      1.485241     -1.020404
  H      -3.015492     -2.996120     -1.769779
  H      -4.879637     -2.956722     -3.408473
  H      -2.567737     -0.418848     -5.987643
  H      -0.675915     -0.482553     -4.330147
  H       0.455858      0.930920     -0.847032
  H       1.222420      1.453136     -2.375570
  H       3.353731      3.787446     -0.343114
  H       3.505776      4.811500      1.918321
  H       4.006479      2.900861      5.055132
  H       5.266357      3.961844      4.426534
  H       3.581196      4.479370      4.376160
  H       4.673557      1.016599      3.547347
  H       4.518129      0.000873      1.292649
  H       2.978396     -1.053073     -2.920867
  H       2.579686     -2.032898     -1.487447
  H       0.298852     -3.879955      2.564523
  H       0.467806     -5.148468      1.322891
  H      -1.137039     -4.797700      2.015673
  H      -1.705826     -2.717202      2.876677
60
Coordinates from ORCA-job file E -2654.968938415916
  C      -3.920550      0.440984      3.640470
  O      -3.141454     -0.726125      3.395364
  C      -2.569003     -0.897299      2.169657
  C      -2.708863      0.005445      1.114866
  C      -2.068981     -0.270486     -0.100485
  O      -2.158990      0.561373     -1.171369
  C      -2.955951      1.740789     -1.095298
  C      -1.300085     -1.438096     -0.267637
  S      -0.338171     -1.816799     -1.798282
  C      -1.730241     -1.704372     -2.999143
  C      -2.881625     -2.457560     -2.771852
  C      -3.902252     -2.466907     -3.721413
  C      -3.749819     -1.723809     -4.887078
  Cl     -5.042858     -1.727385     -6.083686
  C      -2.591904     -0.986484     -5.127764
  C      -1.573375     -0.984506     -4.174508
  C       0.875504     -0.763942     -2.250078
  C       1.118906      0.628551     -1.660324
  N       2.450341      0.137688     -1.151147
  S       3.845142      1.097642     -1.285763
  O       4.966996      0.166029     -1.411371
  O       3.665043      2.200202     -2.237847
  C       3.944404      1.851308      0.347426
  C       3.692549      3.210850      0.496073
  C       3.801488      3.784153      1.762161
  C       4.163662      3.017942      2.874895
  C       4.325160      3.651577      4.232751
  C       4.408955      1.649803      2.691841
  C       4.304592      1.062602      1.437741
  C       2.329561     -1.145686     -1.949595
  C      -1.174971     -2.325213      0.822125
  O      -0.416096     -3.434194      0.599713
  C      -0.213350     -4.368921      1.658823
  C      -1.808884     -2.060420      2.032407
  H      -4.797130      0.482138      2.984320
  H      -3.322685      1.350207      3.516001
  H      -4.248956      0.361674      4.675797
  H      -3.293482      0.903477      1.230188
  H      -2.578758      2.428784     -0.331353
  H      -2.871348      2.209176     -2.074389
  H      -4.004094      1.497262     -0.894605
  H      -2.994552     -3.032396     -1.859958
  H      -4.801171     -3.049412     -3.561654
  H      -2.488476     -0.420234     -6.044795
  H      -0.657125     -0.428395     -4.336119
  H       0.467906      0.958570     -0.845717
  H       1.234748      1.438375     -2.389381
  H       3.431380      3.804465     -0.371318
  H       3.609514      4.845666      1.882203
  H       4.074469      2.950301      5.032886
  H       5.361905      3.970826      4.390952
  H       3.691131      4.535264      4.338811
  H       4.691338      1.038728      3.543269
  H       4.507727      0.007691      1.298356
  H       2.975103     -1.148725     -2.834682
  H       2.548229     -2.032890     -1.348874
  H       0.281563     -3.898604      2.514456
  H       0.432488     -5.141580      1.243869
  H      -1.159868     -4.816618      1.978971
  H      -1.734736     -2.722483      2.882593
60
Coordinates from ORCA-job file E -2654.969920892364
  C      -3.848819      0.409603      3.686697
  O      -3.096435     -0.771640      3.430373
  C      -2.539257     -0.948070      2.201383
  C      -2.675634     -0.039477      1.151493
  C      -2.048186     -0.318976     -0.071081
  O      -2.119746      0.518649     -1.138230
  C      -2.897550      1.708578     -1.054462
  C      -1.305760     -1.494518     -0.248400
  S      -0.365628     -1.869523     -1.798267
  C      -1.740629     -1.691940     -3.006014
  C      -2.942929     -2.359825     -2.787557
  C      -3.939359     -2.320491     -3.759790
  C      -3.710051     -1.616369     -4.939277
  Cl     -4.969520     -1.562854     -6.168400
  C      -2.502669     -0.963587     -5.167737
  C      -1.508159     -1.009271     -4.190956
  C       0.861301     -0.809946     -2.235821
  C       1.082768      0.607730     -1.705506
  N       2.399147      0.138497     -1.145882
  S       3.797976      1.076217     -1.278003
  O       4.908101      0.128364     -1.407990
  O       3.625260      2.163357     -2.250744
  C       3.911604      1.857360      0.341817
  C       3.676792      3.222752      0.461478
  C       3.787528      3.822853      1.715192
  C       4.133279      3.076995      2.846173
  C       4.293885      3.740179      4.191960
  C       4.363691      1.702006      2.694155
  C       4.256688      1.088129      1.451907
  C       2.310008     -1.173369     -1.887161
  C      -1.179634     -2.389121      0.833642
  O      -0.439701     -3.506207      0.601281
  C      -0.243438     -4.441183      1.659048
  C      -1.796584     -2.123700      2.052363
  H      -4.729247      0.470685      3.037802
  H      -3.233978      1.307039      3.560991
  H      -4.171149      0.334281      4.723892
  H      -3.243617      0.868477      1.275651
  H      -2.507516      2.388253     -0.289549
  H      -2.813474      2.180775     -2.031622
  H      -3.948331      1.479711     -0.850490
  H      -3.112811     -2.906563     -1.867179
  H      -4.878948     -2.837095     -3.608839
  H      -2.340228     -0.427509     -6.094567
  H      -0.550900     -0.519591     -4.340161
  H       0.410673      0.973495     -0.925315
  H       1.211320      1.379518     -2.472170
  H       3.424217      3.800421     -0.418899
  H       3.607852      4.889016      1.810967
  H       4.027276      3.062113      5.006428
  H       5.333649      4.048168      4.350705
  H       3.672206      4.634898      4.273374
  H       4.633616      1.106941      3.560845
  H       4.444739      0.027481      1.337649
  H       2.976813     -1.208467     -2.755541
  H       2.513945     -2.036578     -1.248248
  H       0.265452     -3.977014      2.509839
  H       0.386935     -5.224655      1.241856
  H      -1.193921     -4.873733      1.988087
  H      -1.722915     -2.791267      2.898306
60
Coordinates from ORCA-job file E -2654.969962867706
  C      -3.792244      0.406554      3.708653
  O      -3.075999     -0.793796      3.437754
  C      -2.519433     -0.968828      2.208810
  C      -2.625706     -0.040508      1.172479
  C      -2.003617     -0.321898     -0.051659
  O      -2.049362      0.526956     -1.110160
  C      -2.798059      1.734725     -1.018077
  C      -1.305868     -1.523155     -0.249316
  S      -0.366846     -1.885960     -1.798122
  C      -1.738303     -1.690637     -3.000749
  C      -2.938679     -2.364164     -2.791911
  C      -3.932132     -2.319665     -3.767166
  C      -3.702325     -1.605833     -4.940474
  Cl     -4.957340     -1.551177     -6.173704
  C      -2.498265     -0.943073     -5.157875
  C      -1.506063     -0.995837     -4.179374
  C       0.868922     -0.821247     -2.221647
  C       1.084032      0.589681     -1.670606
  N       2.411314      0.125886     -1.133710
  S       3.800527      1.077318     -1.282048
  O       4.921007      0.141672     -1.404567
  O       3.612490      2.145967     -2.271198
  C       3.903508      1.876578      0.328555
  C       3.650186      3.240212      0.434899
  C       3.749364      3.854051      1.682992
  C       4.102492      3.124836      2.822697
  C       4.247970      3.803102      4.163306
  C       4.351859      1.752196      2.684497
  C       4.256721      1.124718      1.448083
  C       2.319748     -1.183613     -1.875474
  C      -1.208875     -2.437656      0.819258
  O      -0.511498     -3.576226      0.572012
  C      -0.358603     -4.532223      1.617563
  C      -1.818138     -2.167052      2.042037
  H      -4.664711      0.507311      3.054174
  H      -3.148579      1.286367      3.603679
  H      -4.125440      0.324580      4.741861
  H      -3.166210      0.882377      1.309053
  H      -2.392242      2.398514     -0.247444
  H      -2.701693      2.212143     -1.991647
  H      -3.854637      1.531623     -0.816464
  H      -3.110024     -2.918240     -1.875838
  H      -4.870870     -2.839837     -3.622234
  H      -2.334013     -0.399958     -6.080268
  H      -0.543773     -0.515437     -4.323016
  H       0.415119      0.937090     -0.879530
  H       1.194642      1.371943     -2.429480
  H       3.391149      3.806333     -0.451021
  H       3.554129      4.918424      1.767403
  H       3.985028      3.129689      4.982819
  H       5.282832      4.125312      4.324260
  H       3.614306      4.690276      4.232833
  H       4.627973      1.168997      3.557442
  H       4.460775      0.065558      1.346846
  H       2.983741     -1.220515     -2.745135
  H       2.521138     -2.047696     -1.236858
  H       0.165210     -4.100639      2.476345
  H       0.240454     -5.335832      1.192990
  H      -1.327294     -4.929572      1.938011
  H      -1.769794     -2.850719      2.876960
60
Coordinates from ORCA-job file E -2654.970077426904
  C      -3.825508      0.393160      3.709966
  O      -3.071010     -0.785697      3.449137
  C      -2.518097     -0.958456      2.217933
  C      -2.663027     -0.047828      1.170095
  C      -2.041727     -0.324445     -0.055544
  O      -2.125482      0.507662     -1.124648
  C      -2.915846      1.689138     -1.040834
  C      -1.315247     -1.508653     -0.246501
  S      -0.378117     -1.873818     -1.797718
  C      -1.740033     -1.664207     -3.005739
  C      -2.950459     -2.319561     -2.795585
  C      -3.938638     -2.273273     -3.776023
  C      -3.693585     -1.575472     -4.955986
  Cl     -4.940093     -1.521748     -6.197834
  C      -2.481157     -0.928460     -5.173237
  C      -1.493804     -0.984926     -4.190543
  C       0.870654     -0.824985     -2.217797
  C       1.093953      0.593416     -1.689411
  N       2.412270      0.126646     -1.136231
  S       3.812381      1.058068     -1.285982
  O       4.918578      0.104784     -1.404828
  O       3.637330      2.125899     -2.278306
  C       3.922843      1.858041      0.324644
  C       3.691175      3.225572      0.431397
  C       3.788496      3.835764      1.681550
  C       4.118756      3.099331      2.823485
  C       4.259429      3.772187      4.167434
  C       4.347737      1.723137      2.684763
  C       4.254314      1.099404      1.446264
  C       2.312161     -1.197475     -1.847163
  C      -1.180031     -2.404999      0.832757
  O      -0.454686     -3.527250      0.590733
  C      -0.265732     -4.467037      1.644919
  C      -1.782532     -2.136674      2.059357
  H      -4.703571      0.457057      3.058469
  H      -3.212242      1.292786      3.592141
  H      -4.151012      0.311886      4.745666
  H      -3.231913      0.858968      1.299432
  H      -2.525175      2.376978     -0.283515
  H      -2.846923      2.156019     -2.021799
  H      -3.962348      1.452142     -0.824329
  H      -3.134170     -2.859221     -1.873147
  H      -4.885460     -2.777901     -3.628960
  H      -2.305668     -0.397206     -6.100497
  H      -0.523895     -0.521256     -4.333166
  H       0.422769      0.961433     -0.910044
  H       1.216689      1.361630     -2.460877
  H       3.448343      3.797159     -0.455742
  H       3.609090      4.902955      1.766149
  H       3.973877      3.101970      4.981973
  H       5.297762      4.075137      4.342665
  H       3.641191      4.670634      4.231182
  H       4.606217      1.133799      3.558996
  H       4.441930      0.037196      1.345797
  H       2.986469     -1.266251     -2.706782
  H       2.493991     -2.047537     -1.184123
  H       0.255785     -4.012020      2.492876
  H       0.349463     -5.259499      1.222550
  H      -1.220254     -4.885546      1.980340
  H      -1.706209     -2.808559      2.901724
60
Coordinates from ORCA-job file E -2654.970131969862
  C      -3.818044      0.386164      3.723191
  O      -3.070883     -0.795654      3.455948
  C      -2.523632     -0.968678      2.221778
  C      -2.662455     -0.052065      1.178064
  C      -2.046421     -0.327900     -0.050563
  O      -2.116328      0.516558     -1.111943
  C      -2.889018      1.708785     -1.017616
  C      -1.324053     -1.512694     -0.245520
  S      -0.379964     -1.879476     -1.795080
  C      -1.733236     -1.671654     -3.010474
  C      -2.950283     -2.316001     -2.800585
  C      -3.936017     -2.265638     -3.783050
  C      -3.682819     -1.573107     -4.964593
  Cl     -4.926777     -1.510840     -6.208524
  C      -2.463815     -0.938591     -5.182078
  C      -1.479246     -0.998241     -4.196950
  C       0.865867     -0.832849     -2.210638
  C       1.087022      0.588348     -1.689388
  N       2.405071      0.125571     -1.135004
  S       3.805110      1.055640     -1.287586
  O       4.911537      0.101154     -1.402254
  O       3.631084      2.121037     -2.283477
  C       3.917976      1.862897      0.319404
  C       3.686750      3.230601      0.422025
  C       3.783377      3.844433      1.670367
  C       4.112324      3.110896      2.814503
  C       4.251559      3.787051      4.156544
  C       4.342118      1.734187      2.679738
  C       4.248873      1.107097      1.443007
  C       2.305758     -1.204065     -1.835476
  C      -1.192223     -2.413306      0.830226
  O      -0.467314     -3.536546      0.583581
  C      -0.277039     -4.482550      1.632084
  C      -1.793014     -2.148976      2.058116
  H      -4.697940      0.456666      3.074704
  H      -3.200072      1.282679      3.606114
  H      -4.140582      0.303291      4.759734
  H      -3.222300      0.859442      1.313205
  H      -2.488671      2.383549     -0.253533
  H      -2.812733      2.184003     -1.993939
  H      -3.938897      1.484680     -0.803782
  H      -3.140714     -2.849608     -1.876216
  H      -4.887164     -2.761884     -3.636025
  H      -2.283145     -0.409171     -6.109400
  H      -0.508501     -0.534806     -4.337225
  H       0.415734      0.958019     -0.909899
  H       1.207924      1.355042     -2.462641
  H       3.443985      3.799721     -0.466879
  H       3.604086      4.911872      1.751895
  H       3.962751      3.119515      4.972156
  H       5.290309      4.088142      4.333346
  H       3.635253      4.687149      4.216562
  H       4.600095      1.147110      3.555523
  H       4.435886      0.044573      1.345555
  H       2.982825     -1.282097     -2.692462
  H       2.485813     -2.047617     -1.163305
  H       0.246430     -4.032702      2.481681
  H       0.336920     -5.273141      1.204162
  H      -1.231449     -4.902110      1.966389
  H      -1.717686     -2.823904      2.898003
60
Coordinates from ORCA-job file E -2654.970161292651
  C      -3.814395      0.380873      3.728748
  O      -3.070911     -0.802729      3.458975
  C      -2.524192     -0.974483      2.224681
  C      -2.658345     -0.053741      1.184053
  C      -2.043630     -0.328679     -0.045321
  O      -2.109474      0.519028     -1.104286
  C      -2.876681      1.714651     -1.006390
  C      -1.326863     -1.516835     -0.244335
  S      -0.383072     -1.881086     -1.793601
  C      -1.733924     -1.669293     -3.009955
  C      -2.949385     -2.319061     -2.807315
  C      -3.932555     -2.266664     -3.792183
  C      -3.678508     -1.566774     -4.969245
  Cl     -4.919163     -1.502217     -6.216326
  C      -2.461119     -0.927060     -5.179900
  C      -1.479288     -0.988375     -4.192179
  C       0.867573     -0.836265     -2.204644
  C       1.089892      0.583863     -1.680130
  N       2.410067      0.120949     -1.132649
  S       3.808989      1.050654     -1.288968
  O       4.915729      0.096431     -1.399580
  O       3.634817      2.111569     -2.289255
  C       3.918785      1.864076      0.314925
  C       3.683687      3.231354      0.412920
  C       3.778254      3.849742      1.659175
  C       4.109048      3.121271      2.805970
  C       4.245708      3.802327      4.145899
  C       4.343033      1.744820      2.675873
  C       4.252002      1.113233      1.441297
  C       2.307295     -1.210221     -1.828327
  C      -1.199347     -2.421668      0.828771
  O      -0.478523     -3.546580      0.579912
  C      -0.293884     -4.496028      1.626333
  C      -1.799280     -2.157867      2.057441
  H      -4.692595      0.457000      3.078657
  H      -3.193012      1.275653      3.616330
  H      -4.139440      0.295524      4.764291
  H      -3.213749      0.860027      1.322168
  H      -2.473709      2.384848     -0.239735
  H      -2.797618      2.192790     -1.981059
  H      -3.927781      1.495014     -0.793950
  H      -3.140221     -2.859072     -1.886778
  H      -4.882180     -2.767433     -3.650671
  H      -2.279640     -0.392174     -6.103916
  H      -0.508651     -0.522620     -4.326393
  H       0.420795      0.950193     -0.897177
  H       1.206085      1.353250     -2.451430
  H       3.439912      3.797005     -0.477906
  H       3.596170      4.916989      1.736828
  H       3.955448      3.137566      4.963262
  H       5.283982      4.104285      4.323757
  H       3.628994      4.702372      4.201655
  H       4.602961      1.161385      3.553552
  H       4.442966      0.051015      1.347885
  H       2.985067     -1.294082     -2.684104
  H       2.483822     -2.052014     -1.152863
  H       0.230554     -4.050632      2.477660
  H       0.316972     -5.288335      1.197246
  H      -1.250562     -4.912090      1.958545
  H      -1.726913     -2.835679      2.895263
60
Coordinates from ORCA-job file E -2654.970202668635
  C      -3.821515      0.361235      3.736177
  O      -3.077670     -0.821414      3.463146
  C      -2.528256     -0.988284      2.229633
  C      -2.655645     -0.060842      1.194119
  C      -2.039471     -0.331392     -0.035404
  O      -2.100271      0.521658     -1.090362
  C      -2.861287      1.720904     -0.986594
  C      -1.329535     -1.522844     -0.240666
  S      -0.386078     -1.884512     -1.789530
  C      -1.732013     -1.661216     -3.007432
  C      -2.950059     -2.308668     -2.812099
  C      -3.929856     -2.249332     -3.799772
  C      -3.669954     -1.544913     -4.973010
  Cl     -4.905798     -1.472538     -6.224384
  C      -2.450662     -0.906768     -5.176349
  C      -1.472255     -0.975122     -4.185779
  C       0.871059     -0.843926     -2.191544
  C       1.096546      0.574648     -1.663321
  N       2.419886      0.110656     -1.128415
  S       3.818043      1.036810     -1.291569
  O       4.923228      0.080014     -1.392507
  O       3.646552      2.088422     -2.301850
  C       3.924510      1.864776      0.305105
  C       3.683557      3.231537      0.392671
  C       3.773205      3.859693      1.634494
  C       4.105359      3.141529      2.787264
  C       4.235840      3.832751      4.122674
  C       4.346243      1.765217      2.667645
  C       4.260023      1.124009      1.437710
  C       2.309419     -1.224215     -1.813260
  C      -1.207910     -2.434324      0.827857
  O      -0.491968     -3.561036      0.574679
  C      -0.315325     -4.517224      1.616363
  C      -1.808714     -2.174275      2.057037
  H      -4.695523      0.442810      3.081175
  H      -3.198473      1.256087      3.633755
  H      -4.153026      0.269379      4.769107
  H      -3.207211      0.854613      1.336376
  H      -2.456230      2.383914     -0.214862
  H      -2.777678      2.204690     -1.958092
  H      -3.914039      1.505819     -0.777622
  H      -3.144868     -2.853172     -1.894998
  H      -4.880870     -2.748979     -3.663855
  H      -2.264636     -0.368571     -6.097542
  H      -0.498815     -0.513543     -4.314024
  H       0.432173      0.935776     -0.873616
  H       1.204507      1.348814     -2.431136
  H       3.438682      3.789797     -0.502503
  H       3.586241      4.926674      1.703743
  H       3.939377      3.174726      4.943310
  H       5.273603      4.133933      4.304591
  H       3.620569      4.734338      4.168174
  H       4.607816      1.189299      3.549824
  H       4.456397      0.062044      1.353073
  H       2.988480     -1.320913     -2.666538
  H       2.478889     -2.061532     -1.130145
  H       0.209801     -4.079427      2.471196
  H       0.291863     -5.310698      1.184304
  H      -1.275174     -4.929436      1.944186
  H      -1.741086     -2.857454      2.890891
60
Coordinates from ORCA-job file E -2654.970236150534
  C      -3.840742      0.336822      3.741458
  O      -3.093576     -0.843180      3.466067
  C      -2.541594     -1.004993      2.233168
  C      -2.665103     -0.072565      1.201747
  C      -2.046083     -0.338118     -0.027470
  O      -2.102430      0.520367     -1.078280
  C      -2.858992      1.722013     -0.969207
  C      -1.337009     -1.529536     -0.236559
  S      -0.390546     -1.886648     -1.784391
  C      -1.730884     -1.653156     -3.005866
  C      -2.951537     -2.298407     -2.819624
  C      -3.926438     -2.231856     -3.811573
  C      -3.659167     -1.522477     -4.980214
  Cl     -4.888709     -1.441262     -6.237204
  C      -2.437469     -0.886306     -5.174618
  C      -1.463950     -0.961942     -4.179767
  C       0.871900     -0.850155     -2.176714
  C       1.100195      0.567822     -1.648025
  N       2.425398      0.102814     -1.121349
  S       3.824687      1.022974     -1.291028
  O       4.926003      0.061080     -1.383421
  O       3.657765      2.066452     -2.310419
  C       3.932507      1.864867      0.298365
  C       3.690225      3.231944      0.374943
  C       3.780289      3.870482      1.611538
  C       4.114538      3.162328      2.769777
  C       4.245317      3.864413      4.099502
  C       4.357206      1.785325      2.661199
  C       4.270426      1.133847      1.436729
  C       2.308356     -1.236130     -1.795701
  C      -1.218394     -2.445674      0.828454
  O      -0.501469     -3.571029      0.572624
  C      -0.326880     -4.531338      1.610873
  C      -1.822363     -2.190762      2.057110
  H      -4.712203      0.419798      3.083269
  H      -3.218954      1.233282      3.645719
  H      -4.176278      0.239576      4.772582
  H      -3.215510      0.843105      1.347090
  H      -2.453326      2.378821     -0.192538
  H      -2.770974      2.211270     -1.937567
  H      -3.913102      1.509743     -0.764243
  H      -3.151788     -2.847264     -1.906293
  H      -4.879143     -2.730137     -3.682766
  H      -2.245623     -0.344338     -6.092400
  H      -0.488597     -0.502667     -4.301351
  H       0.439906      0.926112     -0.853306
  H       1.202534      1.344738     -2.413878
  H       3.444204      3.782823     -0.524468
  H       3.592173      4.937786      1.672114
  H       3.942473      3.215249      4.924892
  H       5.284286      4.160922      4.282115
  H       3.635305      4.769977      4.135487
  H       4.620727      1.216998      3.547723
  H       4.468391      0.071539      1.360690
  H       2.988495     -1.344193     -2.646692
  H       2.471977     -2.068721     -1.105258
  H       0.196320     -4.096832      2.468549
  H       0.281491     -5.322831      1.176867
  H      -1.287301     -4.945132      1.934944
  H      -1.756957     -2.877641      2.888091
60
Coordinates from ORCA-job file E -2654.970282867690
  C      -3.882426      0.286573      3.748412
  O      -3.130535     -0.889346      3.468462
  C      -2.570072     -1.040014      2.238017
  C      -2.683760     -0.097239      1.215031
  C      -2.056109     -0.352155     -0.012207
  O      -2.102378      0.517330     -1.054431
  C      -2.851003      1.723034     -0.936126
  C      -1.349129     -1.543554     -0.228181
  S      -0.395822     -1.892223     -1.773890
  C      -1.726870     -1.638752     -3.001392
  C      -2.953852     -2.275584     -2.828888
  C      -3.920937     -2.193861     -3.827314
  C      -3.639601     -1.478065     -4.988701
  Cl     -4.859078     -1.378457     -6.254131
  C      -2.411767     -0.849641     -5.169300
  C      -1.446102     -0.940528     -4.168024
  C       0.874127     -0.861283     -2.148717
  C       1.106909      0.554891     -1.617810
  N       2.435618      0.087603     -1.105075
  S       3.836984      0.997735     -1.288026
  O       4.931782      0.027143     -1.363840
  O       3.677356      2.025106     -2.324910
  C       3.948566      1.866611      0.286784
  C       3.705683      3.234600      0.340981
  C       3.797615      3.893838      1.566688
  C       4.134727      3.205340      2.735775
  C       4.267258      3.929159      4.053614
  C       4.378542      1.826843      2.649661
  C       4.289588      1.154858      1.436514
  C       2.307513     -1.256634     -1.765774
  C      -1.239393     -2.469673      0.829170
  O      -0.522179     -3.593567      0.567825
  C      -0.353388     -4.562751      1.598765
  C      -1.851733     -2.225468      2.055676
  H      -4.748036      0.374199      3.083137
  H      -3.261504      1.185021      3.666887
  H      -4.227080      0.178710      4.775459
  H      -3.232587      0.818536      1.365620
  H      -2.445689      2.367919     -0.149353
  H      -2.752992      2.222886     -1.898097
  H      -3.907902      1.515823     -0.740582
  H      -3.164767     -2.829859     -1.921232
  H      -4.878280     -2.685882     -3.709379
  H      -2.208878     -0.302403     -6.081564
  H      -0.466743     -0.487722     -4.280541
  H       0.454298      0.907563     -0.813753
  H       1.200246      1.337162     -2.379459
  H       3.457968      3.770561     -0.566922
  H       3.608612      4.961823      1.609837
  H       3.951936      3.298425      4.888639
  H       5.308861      4.215816      4.236913
  H       3.668448      4.842703      4.070442
  H       4.644521      1.273696      3.545015
  H       4.488286      0.091629      1.377500
  H       2.987655     -1.380006     -2.614597
  H       2.463923     -2.082676     -1.065676
  H       0.165392     -4.135713      2.462854
  H       0.257213     -5.350534      1.161128
  H      -1.315564     -4.979118      1.914128
  H      -1.793469     -2.920429      2.880458
60
Coordinates from ORCA-job file E -2654.970326684836
  C      -3.927284      0.226018      3.757987
  O      -3.174504     -0.947567      3.470796
  C      -2.604614     -1.085065      2.243070
  C      -2.705697     -0.129222      1.231047
  C      -2.068296     -0.371593      0.006113
  O      -2.101063      0.512074     -1.024623
  C      -2.840234      1.722296     -0.894921
  C      -1.364778     -1.563309     -0.218810
  S      -0.401631     -1.900200     -1.761935
  C      -1.721687     -1.621376     -2.996388
  C      -2.956590     -2.246537     -2.839839
  C      -3.914403     -2.145184     -3.845480
  C      -3.616044     -1.421801     -4.997756
  Cl     -4.823774     -1.298248     -6.272311
  C      -2.380258     -0.804414     -5.162244
  C      -1.423889     -0.915086     -4.153943
  C       0.877478     -0.876034     -2.115397
  C       1.115029      0.538462     -1.583645
  N       2.446053      0.067991     -1.081088
  S       3.850760      0.966359     -1.280124
  O       4.938406     -0.013666     -1.333892
  O       3.699888      1.972654     -2.338916
  C       3.965844      1.868746      0.275632
  C       3.726206      3.238220      0.299888
  C       3.821030      3.924152      1.510729
  C       4.158444      3.260757      2.694092
  C       4.294093      4.012791      3.995701
  C       4.399420      1.880143      2.638035
  C       4.307142      1.181698      1.440222
  C       2.306750     -1.281388     -1.729026
  C      -1.266845     -2.502162      0.828317
  O      -0.550672     -3.624982      0.559377
  C      -0.388702     -4.604903      1.581180
  C      -1.888883     -2.270791      2.052281
  H      -4.786951      0.322448      3.086239
  H      -3.304586      1.124516      3.692294
  H      -4.280998      0.106550      4.780654
  H      -3.251484      0.787194      1.388625
  H      -2.435756      2.352480     -0.095880
  H      -2.729952      2.235007     -1.848768
  H      -3.900415      1.521384     -0.710941
  H      -3.180784     -2.806738     -1.939049
  H      -4.877832     -2.628104     -3.740132
  H      -2.163921     -0.250718     -6.067485
  H      -0.439795     -0.470493     -4.256378
  H       0.469605      0.887571     -0.771877
  H       1.202347      1.324534     -2.342176
  H       3.478993      3.754815     -0.619294
  H       3.634113      4.993173      1.530650
  H       3.961993      3.407278      4.842871
  H       5.339208      4.285596      4.180125
  H       3.711114      4.936597      3.986842
  H       4.665766      1.346562      3.545081
  H       4.503586      0.117054      1.403697
  H       2.986820     -1.419433     -2.575584
  H       2.455824     -2.100732     -1.019451
  H       0.124926     -4.187090      2.452823
  H       0.224356     -5.388304      1.139096
  H      -1.352903     -5.024184      1.886262
  H      -1.839971     -2.975797      2.869127
60
Coordinates from ORCA-job file E -2654.970334624255
  C      -4.050177      0.038896      3.787967
  O      -3.303087     -1.131466      3.474155
  C      -2.705376     -1.228381      2.255440
  C      -2.765094     -0.231003      1.281183
  C      -2.099154     -0.434757      0.063876
  O      -2.088744      0.493428     -0.927528
  C      -2.798182      1.716215     -0.759693
  C      -1.410140     -1.628406     -0.192037
  S      -0.415662     -1.927993     -1.726483
  C      -1.700950     -1.564390     -2.978340
  C      -2.961517     -2.145368     -2.867448
  C      -3.891693     -1.976338     -3.890214
  C      -3.540707     -1.230602     -5.012552
  Cl     -4.714028     -1.023233     -6.308275
  C      -2.278885     -0.655894     -5.130878
  C      -1.350296     -0.834553     -4.106050
  C       0.891679     -0.926917     -2.011917
  C       1.144545      0.481837     -1.477209
  N       2.478591     -0.001767     -0.996459
  S       3.894401      0.859801     -1.241025
  O       4.961752     -0.143417     -1.214622
  O       3.774121      1.791927     -2.369765
  C       4.011579      1.870565      0.246690
  C       3.784482      3.240388      0.168220
  C       3.884216      4.013887      1.324825
  C       4.216033      3.437150      2.554155
  C       4.357737      4.282035      3.796741
  C       4.445182      2.054001      2.601400
  C       4.346664      1.268870      1.459204
  C       2.306841     -1.363076     -1.612969
  C      -1.352248     -2.608595      0.819179
  O      -0.644266     -3.730093      0.523160
  C      -0.505254     -4.744787      1.513792
  C      -2.002586     -2.416660      2.034855
  H      -4.892135      0.170025      3.099803
  H      -3.416835      0.932139      3.771287
  H      -4.429932     -0.115434      4.796521
  H      -3.298757      0.688072      1.462895
  H      -2.396937      2.298436      0.076575
  H      -2.649772      2.268457     -1.685932
  H      -3.867653      1.536665     -0.610770
  H      -3.227197     -2.722315     -1.988861
  H      -4.875142     -2.424199     -3.820740
  H      -2.020976     -0.082884     -6.012880
  H      -0.350859     -0.420451     -4.180344
  H       0.517972      0.823616     -0.646884
  H       1.221793      1.277570     -2.226995
  H       3.544212      3.689646     -0.787428
  H       3.706088      5.082867      1.265096
  H       3.970453      3.764309      4.678180
  H       5.411065      4.512756      3.991571
  H       3.826872      5.231532      3.697850
  H       4.707510      1.588198      3.546171
  H       4.534092      0.202773      1.499764
  H       2.987132     -1.540481     -2.451864
  H       2.433731     -2.164389     -0.878833
  H      -0.005917     -4.359000      2.408199
  H       0.112747     -5.515543      1.056492
  H      -1.476390     -5.169883      1.787014
  H      -1.984939     -3.153786      2.824231
60
Coordinates from ORCA-job file E -2654.970042821468
  C      -4.218931     -0.162718      3.800498
  O      -3.466130     -1.322758      3.463471
  C      -2.832344     -1.373768      2.260102
  C      -2.853244     -0.336284      1.326762
  C      -2.150342     -0.496376      0.123225
  O      -2.094465      0.475997     -0.823471
  C      -2.778755      1.706468     -0.615441
  C      -1.468287     -1.686970     -0.162304
  S      -0.434002     -1.945110     -1.682028
  C      -1.676677     -1.505154     -2.954653
  C      -2.954922     -2.053592     -2.899143
  C      -3.848232     -1.828078     -3.943980
  C      -3.443794     -1.059025     -5.031678
  Cl     -4.570134     -0.783669     -6.356079
  C      -2.164595     -0.514081     -5.093371
  C      -1.272771     -0.749640     -4.047211
  C       0.895781     -0.964231     -1.894712
  C       1.158171      0.440622     -1.361023
  N       2.495100     -0.050924     -0.896302
  S       3.919743      0.771146     -1.197678
  O       4.966237     -0.250639     -1.111192
  O       3.812853      1.630260     -2.384275
  C       4.061440      1.877283      0.218218
  C       3.844645      3.240425      0.046036
  C       3.966356      4.092843      1.143444
  C       4.312442      3.601085      2.405171
  C       4.477649      4.529844      3.583417
  C       4.532531      2.222630      2.546712
  C       4.410231      1.359329      1.464836
  C       2.295093     -1.426569     -1.474748
  C      -1.445618     -2.705665      0.810951
  O      -0.733899     -3.818437      0.491398
  C      -0.606567     -4.861881      1.452953
  C      -2.130872     -2.557622      2.013098
  H      -5.040598     -0.003137      3.094087
  H      -3.583634      0.728504      3.835809
  H      -4.627589     -0.354332      4.791157
  H      -3.382329      0.580645      1.531201
  H      -2.387853      2.237354      0.259031
  H      -2.589868      2.299141     -1.508715
  H      -3.856175      1.547551     -0.505512
  H      -3.262677     -2.648370     -2.046702
  H      -4.845049     -2.250370     -3.917911
  H      -1.864501      0.079362     -5.948070
  H      -0.264007     -0.354839     -4.085059
  H       0.547090      0.776317     -0.515952
  H       1.226252      1.242684     -2.105029
  H       3.595220      3.623422     -0.935775
  H       3.794287      5.156242      1.011099
  H       4.047954      4.102252      4.493190
  H       5.538363      4.718911      3.782641
  H       4.000370      5.495269      3.401882
  H       4.806561      1.823544      3.518291
  H       4.590645      0.297029      1.575429
  H       2.977086     -1.646009     -2.302075
  H       2.399094     -2.204263     -0.712272
  H      -0.127507     -4.500057      2.368180
  H       0.026175     -5.613774      0.984507
  H      -1.579227     -5.302371      1.694203
  H      -2.141773     -3.325444      2.772860
60
Coordinates from ORCA-job file E -2654.970377681500
  C      -4.062511      0.008384      3.789625
  O      -3.325437     -1.165176      3.465090
  C      -2.720176     -1.252643      2.249500
  C      -2.766830     -0.244525      1.283845
  C      -2.096110     -0.441013      0.068171
  O      -2.067468      0.496409     -0.914959
  C      -2.762910      1.726215     -0.737641
  C      -1.417949     -1.639108     -0.195694
  S      -0.419146     -1.935230     -1.728214
  C      -1.701712     -1.559415     -2.980627
  C      -2.961145     -2.145964     -2.875137
  C      -3.893560     -1.969324     -3.894310
  C      -3.547439     -1.208723     -5.008422
  Cl     -4.723714     -0.988594     -6.299416
  C      -2.288060     -0.628540     -5.121947
  C      -1.356365     -0.815504     -4.101150
  C       0.896590     -0.935838     -2.000276
  C       1.150401      0.472855     -1.471488
  N       2.475933     -0.012084     -0.961946
  S       3.902945      0.838281     -1.217955
  O       4.972154     -0.163269     -1.187782
  O       3.783425      1.761889     -2.352341
  C       4.020853      1.863479      0.257288
  C       3.793326      3.231340      0.154609
  C       3.892774      4.025240      1.296147
  C       4.225646      3.471028      2.535394
  C       4.365903      4.339093      3.762174
  C       4.455746      2.088844      2.607372
  C       4.356510      1.282844      1.479493
  C       2.305295     -1.376733     -1.579254
  C      -1.370779     -2.628559      0.806886
  O      -0.669831     -3.752096      0.502947
  C      -0.530795     -4.770824      1.489055
  C      -2.024359     -2.443541      2.021844
  H      -4.902475      0.153819      3.102149
  H      -3.421726      0.896443      3.783304
  H      -4.444643     -0.152905      4.796179
  H      -3.294488      0.676754      1.471754
  H      -2.359971      2.293324      0.107942
  H      -2.602759      2.287233     -1.656514
  H      -3.835658      1.559452     -0.596875
  H      -3.225029     -2.732135     -2.002238
  H      -4.875862     -2.420286     -3.827137
  H      -2.034757     -0.043059     -5.997044
  H      -0.359611     -0.394399     -4.169018
  H       0.511937      0.826824     -0.656040
  H       1.245539      1.258732     -2.229341
  H       3.551147      3.662446     -0.809038
  H       3.713024      5.092786      1.217013
  H       3.970595      3.841075      4.651287
  H       5.419374      4.567389      3.957896
  H       3.840782      5.288939      3.641045
  H       4.718872      1.640294      3.560093
  H       4.544017      0.217598      1.538995
  H       2.993837     -1.559261     -2.410542
  H       2.418584     -2.176044     -0.841307
  H      -0.030954     -4.388843      2.384674
  H       0.086403     -5.540078      1.028311
  H      -1.501892     -5.196762      1.761081
  H      -2.015491     -3.188536      2.803989
60
Coordinates from ORCA-job file E -2654.970432457107
  C      -4.043324      0.029110      3.789661
  O      -3.310444     -1.147799      3.467443
  C      -2.707267     -1.239994      2.251178
  C      -2.755049     -0.234692      1.283392
  C      -2.087626     -0.435014      0.066682
  O      -2.064728      0.498625     -0.919939
  C      -2.764416      1.726430     -0.745487
  C      -1.409954     -1.633764     -0.195735
  S      -0.414275     -1.934603     -1.729178
  C      -1.698446     -1.564213     -2.980129
  C      -2.957114     -2.151084     -2.869887
  C      -3.892061     -1.977378     -3.887246
  C      -3.548335     -1.220047     -5.004400
  Cl     -4.727286     -1.004343     -6.293626
  C      -2.289170     -0.640144     -5.122569
  C      -1.355564     -0.823583     -4.103183
  C       0.897287     -0.932726     -2.008591
  C       1.149644      0.474185     -1.473422
  N       2.476336     -0.011462     -0.968489
  S       3.897384      0.847186     -1.227625
  O       4.967907     -0.152693     -1.202455
  O       3.770879      1.771722     -2.361112
  C       4.016489      1.866216      0.252718
  C       3.786834      3.234792      0.159787
  C       3.882508      4.020498      1.307823
  C       4.212254      3.457476      2.544055
  C       4.346822      4.316057      3.778191
  C       4.444317      2.075347      2.606118
  C       4.350057      1.277805      1.471889
  C       2.308345     -1.371797     -1.595423
  C      -1.363294     -2.621751      0.808522
  O      -0.666531     -3.748470      0.505580
  C      -0.532150     -4.767155      1.492565
  C      -2.014254     -2.432710      2.024554
  H      -4.882732      0.176182      3.101681
  H      -3.399277      0.914833      3.781487
  H      -4.426081     -0.128600      4.796601
  H      -3.282492      0.687129      1.469857
  H      -2.362287      2.297314      0.098066
  H      -2.607431      2.285240     -1.666327
  H      -3.836337      1.556190     -0.602821
  H      -3.218370     -2.735438     -1.994882
  H      -4.873824     -2.428833     -3.816807
  H      -2.037531     -0.057956     -6.000373
  H      -0.357574     -0.405318     -4.174921
  H       0.511695      0.824477     -0.655896
  H       1.243486      1.263633     -2.227777
  H       3.546466      3.672743     -0.801033
  H       3.702022      5.088400      1.236258
  H       3.949916      3.809939      4.662101
  H       5.399210      4.545328      3.979186
  H       3.819718      5.265718      3.663137
  H       4.705142      1.619804      3.556266
  H       4.538388      0.212363      1.524772
  H       2.995706     -1.546414     -2.429058
  H       2.425936     -2.176006     -0.863268
  H      -0.032161     -4.386145      2.388620
  H       0.083050     -5.538853      1.033113
  H      -1.505056     -5.189673      1.763661
  H      -2.005353     -3.176082      2.808196
60
Coordinates from ORCA-job file E -2654.970418541328
  C      -4.076181     -0.003668      3.792828
  O      -3.343324     -1.179481      3.466611
  C      -2.732462     -1.263826      2.253476
  C      -2.773504     -0.251809      1.292594
  C      -2.099254     -0.444419      0.078380
  O      -2.068208      0.496974     -0.900745
  C      -2.763608      1.726143     -0.719221
  C      -1.421581     -1.642067     -0.188833
  S      -0.417766     -1.934652     -1.719623
  C      -1.693817     -1.555037     -2.975570
  C      -2.952909     -2.142993     -2.878087
  C      -3.880114     -1.963751     -3.901604
  C      -3.528111     -1.199810     -5.011710
  Cl     -4.696957     -0.977527     -6.308934
  C      -2.268459     -0.618421     -5.116684
  C      -1.342637     -0.807737     -4.091431
  C       0.896695     -0.935361     -1.989099
  C       1.150004      0.471079     -1.454632
  N       2.475935     -0.015338     -0.947168
  S       3.897339      0.837925     -1.226471
  O       4.964086     -0.165838     -1.198620
  O       3.765317      1.749740     -2.369988
  C       4.028289      1.871047      0.243319
  C       3.801525      3.239582      0.139026
  C       3.902771      4.035389      1.279828
  C       4.234905      3.482580      2.520080
  C       4.372720      4.351200      3.746916
  C       4.464913      2.100739      2.593361
  C       4.365043      1.293301      1.466700
  C       2.305084     -1.377181     -1.571548
  C      -1.381272     -2.636815      0.808934
  O      -0.683882     -3.762389      0.502543
  C      -0.550849     -4.784887      1.485752
  C      -2.039007     -2.455421      2.022688
  H      -4.911592      0.149289      3.101241
  H      -3.430843      0.881156      3.794224
  H      -4.464691     -0.167512      4.796597
  H      -3.301020      0.669213      1.482642
  H      -2.363799      2.287528      0.131808
  H      -2.599185      2.292591     -1.634088
  H      -3.837058      1.559384     -0.584093
  H      -3.220402     -2.732828     -2.008664
  H      -4.862069     -2.416203     -3.841412
  H      -2.010324     -0.030817     -5.988989
  H      -0.344010     -0.389166     -4.153151
  H       0.511764      0.823297     -0.638161
  H       1.246350      1.259478     -2.209730
  H       3.558173      3.669412     -0.824686
  H       3.724002      5.102929      1.199527
  H       3.964280      3.858367      4.633147
  H       5.426582      4.569541      3.952309
  H       3.857736      5.305955      3.619659
  H       4.727834      1.653022      3.546690
  H       4.550988      0.227936      1.528787
  H       2.994133     -1.556181     -2.402637
  H       2.418721     -2.178869     -0.836063
  H      -0.055958     -4.406151      2.385613
  H       0.068603     -5.552919      1.025836
  H      -1.523645     -5.211512      1.750839
  H      -2.035293     -3.204213      2.801187
60
Coordinates from ORCA-job file E -2654.970377858443
  C      -4.130796     -0.050323      3.787519
  O      -3.390314     -1.220933      3.459809
  C      -2.766312     -1.293995      2.252591
  C      -2.796456     -0.273071      1.300629
  C      -2.109631     -0.455035      0.091761
  O      -2.065531      0.496073     -0.877627
  C      -2.753328      1.728372     -0.687833
  C      -1.431488     -1.651550     -0.179999
  S      -0.420711     -1.937551     -1.707107
  C      -1.687549     -1.543544     -2.967913
  C      -2.949860     -2.126576     -2.882420
  C      -3.869772     -1.936174     -3.910567
  C      -3.507420     -1.165601     -5.012796
  Cl     -4.666735     -0.929705     -6.316258
  C      -2.245093     -0.587880     -5.105159
  C      -1.326553     -0.788686     -4.075598
  C       0.898610     -0.940553     -1.962764
  C       1.154223      0.462822     -1.422028
  N       2.483295     -0.024702     -0.924404
  S       3.904512      0.821644     -1.224951
  O       4.969043     -0.184221     -1.192012
  O       3.766917      1.718911     -2.379270
  C       4.043887      1.873747      0.230653
  C       3.807452      3.239436      0.112405
  C       3.912991      4.049322      1.242919
  C       4.259731      3.513509      2.486560
  C       4.400670      4.396856      3.702512
  C       4.500592      2.134221      2.573678
  C       4.396059      1.312860      1.457624
  C       2.304573     -1.388662     -1.542688
  C      -1.400800     -2.654683      0.809812
  O      -0.699499     -3.777162      0.501175
  C      -0.570043     -4.805045      1.479290
  C      -2.070264     -2.483453      2.018652
  H      -4.958739      0.105779      3.087756
  H      -3.488556      0.836607      3.803988
  H      -4.530166     -0.224097      4.785342
  H      -3.324725      0.646775      1.493935
  H      -2.357780      2.275876      0.174106
  H      -2.575371      2.304734     -1.593911
  H      -3.829396      1.568545     -0.565554
  H      -3.225495     -2.720947     -2.018651
  H      -4.854009     -2.384832     -3.859952
  H      -1.979396      0.005707     -5.971118
  H      -0.325818     -0.373606     -4.126148
  H       0.520324      0.809393     -0.599559
  H       1.244884      1.256298     -2.172566
  H       3.552363      3.656403     -0.854009
  H       3.725728      5.114536      1.151800
  H       3.987775      3.917505      4.594134
  H       5.455291      4.611736      3.907403
  H       3.891232      5.352732      3.562427
  H       4.775484      1.699453      3.529622
  H       4.590242      0.249666      1.530676
  H       2.993769     -1.576657     -2.371607
  H       2.413054     -2.186559     -0.802256
  H      -0.082695     -4.429946      2.384739
  H       0.055138     -5.568275      1.019134
  H      -1.543222     -5.236430      1.735032
  H      -2.074315     -3.239062      2.790542
60
Coordinates from ORCA-job file E -2654.970389970466
  C      -4.116843     -0.042803      3.791331
  O      -3.378534     -1.214441      3.462485
  C      -2.758283     -1.289434      2.253485
  C      -2.789118     -0.269086      1.300786
  C      -2.105402     -0.452858      0.090418
  O      -2.063595      0.496745     -0.880761
  C      -2.752578      1.728643     -0.692247
  C      -1.428682     -1.650112     -0.181395
  S      -0.419321     -1.937775     -1.709521
  C      -1.687755     -1.544977     -2.968937
  C      -2.951795     -2.123932     -2.879111
  C      -3.873571     -1.933486     -3.905500
  C      -3.511574     -1.166923     -5.010633
  Cl     -4.673713     -0.930045     -6.311488
  C      -2.247361     -0.594375     -5.108163
  C      -1.326858     -0.795159     -4.080296
  C       0.900972     -0.942909     -1.967852
  C       1.157096      0.463453     -1.434528
  N       2.484089     -0.022761     -0.931269
  S       3.908101      0.821647     -1.223231
  O       4.972750     -0.183964     -1.186900
  O       3.776628      1.721369     -2.376138
  C       4.041301      1.872317      0.233915
  C       3.798141      3.236732      0.117319
  C       3.900177      4.045802      1.248631
  C       4.250514      3.510473      2.491406
  C       4.389183      4.393422      3.707832
  C       4.497841      2.132143      2.577014
  C       4.396641      1.311513      1.460074
  C       2.306421     -1.389460     -1.542851
  C      -1.397849     -2.652844      0.808762
  O      -0.698969     -3.776512      0.499008
  C      -0.574288     -4.806992      1.474998
  C      -2.065053     -2.480375      2.018573
  H      -4.945764      0.114475      3.093002
  H      -3.473318      0.843236      3.806713
  H      -4.514767     -0.216014      4.789831
  H      -3.315576      0.651700      1.494611
  H      -2.355880      2.278776      0.167470
  H      -2.577474      2.303106     -1.600090
  H      -3.828151      1.567557     -0.567190
  H      -3.227385     -2.714941     -2.013065
  H      -4.859152     -2.378791     -3.851235
  H      -1.981854     -0.004450     -5.976669
  H      -0.324699     -0.383966     -4.133625
  H       0.521603      0.814962     -0.615469
  H       1.249822      1.252914     -2.189085
  H       3.541536      3.653731     -0.848714
  H       3.708143      5.110283      1.158605
  H       3.984573      3.909195      4.600616
  H       5.442742      4.617369      3.908358
  H       3.870763      5.344971      3.571407
  H       4.775470      1.697614      3.532245
  H       4.596260      0.249245      1.531959
  H       2.997144     -1.581685     -2.369681
  H       2.413330     -2.184138     -0.798735
  H      -0.085037     -4.436147      2.381174
  H       0.047224     -5.572182      1.013130
  H      -1.549513     -5.234222      1.729903
  H      -2.068747     -3.235631      2.790819
60
Coordinates from ORCA-job file E -2654.970417437887
  C      -4.068208     -0.009064      3.798696
  O      -3.338697     -1.185956      3.468986
  C      -2.729606     -1.269654      2.254915
  C      -2.763301     -0.253376      1.298018
  C      -2.089697     -0.445348      0.083293
  O      -2.055020      0.498324     -0.894008
  C      -2.746745      1.729417     -0.710097
  C      -1.417879     -1.645516     -0.187287
  S      -0.413619     -1.939907     -1.718518
  C      -1.688325     -1.553319     -2.973531
  C      -2.955464     -2.123192     -2.869345
  C      -3.884236     -1.934346     -3.889594
  C      -3.526308     -1.178487     -5.003340
  Cl     -4.698637     -0.940896     -6.295000
  C      -2.258424     -0.617178     -5.116630
  C      -1.330857     -0.816216     -4.094765
  C       0.906122     -0.947221     -1.987800
  C       1.161876      0.464969     -1.468455
  N       2.484090     -0.018835     -0.951763
  S       3.911682      0.826694     -1.220283
  O       4.977465     -0.177322     -1.177648
  O       3.793032      1.734851     -2.367725
  C       4.029163      1.868637      0.244422
  C       3.767644      3.230194      0.136883
  C       3.860068      4.033047      1.273306
  C       4.219758      3.494543      2.511976
  C       4.351469      4.372084      3.732924
  C       4.484772      2.118922      2.588613
  C       4.392993      1.304255      1.466423
  C       2.311854     -1.388480     -1.556831
  C      -1.386106     -2.645125      0.805982
  O      -0.695735     -3.773818      0.495077
  C      -0.582277     -4.807895      1.468634
  C      -2.044929     -2.465447      2.019237
  H      -4.900589      0.150923      3.105126
  H      -3.419395      0.873225      3.807187
  H      -4.460856     -0.176871      4.800206
  H      -3.284420      0.670531      1.491664
  H      -2.345697      2.287983      0.142122
  H      -2.580298      2.297127     -1.623811
  H      -3.820759      1.565382     -0.575815
  H      -3.228213     -2.705521     -1.996575
  H      -4.872483     -2.372150     -3.823764
  H      -1.995861     -0.036748     -5.992390
  H      -0.326045     -0.413207     -4.158687
  H       0.521885      0.826548     -0.657486
  H       1.260549      1.245933     -2.231089
  H       3.506743      3.650450     -0.826580
  H       3.654776      5.095636      1.190151
  H       3.970756      3.871427      4.627103
  H       5.401501      4.621383      3.921808
  H       3.807577      5.311203      3.610058
  H       4.769621      1.681961      3.540571
  H       4.607256      0.244381      1.531130
  H       3.004733     -1.582414     -2.381668
  H       2.418948     -2.180383     -0.809822
  H      -0.086097     -4.445599      2.374502
  H       0.028106     -5.580112      1.003627
  H      -1.562538     -5.222670      1.724807
  H      -2.047118     -3.217756      2.794358
60
Coordinates from ORCA-job file E -2654.970425795467
  C      -4.033850      0.014125      3.804662
  O      -3.311725     -1.167094      3.474112
  C      -2.710171     -1.256917      2.256692
  C      -2.744602     -0.242848      1.297595
  C      -2.078013     -0.440471      0.079913
  O      -2.046636      0.500022     -0.900609
  C      -2.738178      1.731503     -0.718739
  C      -1.411504     -1.643401     -0.190901
  S      -0.410179     -1.942086     -1.724270
  C      -1.687932     -1.558510     -2.976985
  C      -2.957544     -2.121023     -2.863783
  C      -3.890158     -1.932461     -3.880533
  C      -3.533621     -1.184173     -4.999816
  Cl     -4.711582     -0.945071     -6.286062
  C      -2.262861     -0.631481     -5.122740
  C      -1.331501     -0.830163     -4.104325
  C       0.909689     -0.951490     -2.000900
  C       1.165410      0.464654     -1.491536
  N       2.483683     -0.018062     -0.964436
  S       3.913407      0.828162     -1.217470
  O       4.979116     -0.175640     -1.168673
  O       3.803584      1.740429     -2.362546
  C       4.020412      1.865486      0.251233
  C       3.738272      3.223511      0.150360
  C       3.823548      4.022895      1.289710
  C       4.197052      3.484764      2.524498
  C       4.322965      4.359763      3.747826
  C       4.482562      2.112962      2.594367
  C       4.397858      1.301536      1.469192
  C       2.315191     -1.389372     -1.565639
  C      -1.380052     -2.641456      0.803931
  O      -0.696986     -3.774364      0.491876
  C      -0.592494     -4.811123      1.463567
  C      -2.032561     -2.456523      2.019858
  H      -4.867974      0.177416      3.113968
  H      -3.380298      0.892949      3.809212
  H      -4.423618     -0.149956      4.807913
  H      -3.260884      0.683675      1.491705
  H      -2.333179      2.294359      0.128787
  H      -2.576812      2.295124     -1.635902
  H      -3.811336      1.567218     -0.578170
  H      -3.229297     -2.697308     -1.986726
  H      -4.880510     -2.364337     -3.807569
  H      -2.001236     -0.057699     -6.003146
  H      -0.324632     -0.433427     -4.174908
  H       0.521794      0.834301     -0.687274
  H       1.269631      1.238742     -2.260416
  H       3.468916      3.644258     -0.810545
  H       3.602802      5.082779      1.211722
  H       3.965203      3.846427      4.644234
  H       5.369120      4.632976      3.924927
  H       3.755755      5.286404      3.635898
  H       4.778540      1.676501      3.543147
  H       4.628818      0.244848      1.528329
  H       3.009600     -1.584162     -2.389060
  H       2.422043     -2.179577     -0.816851
  H      -0.090507     -4.455713      2.368979
  H       0.008562     -5.589119      0.996059
  H      -1.576685     -5.215595      1.721173
  H      -2.034418     -3.207169      2.796584
60
Coordinates from ORCA-job file E -2654.970419927101
  C      -3.969975      0.057250      3.814737
  O      -3.261219     -1.131646      3.482668
  C      -2.673302     -1.232341      2.259406
  C      -2.710141     -0.222570      1.296021
  C      -2.056777     -0.430342      0.072921
  O      -2.031099      0.504758     -0.913037
  C      -2.721194      1.737419     -0.733875
  C      -1.400190     -1.638441     -0.198592
  S      -0.405344     -1.945628     -1.736116
  C      -1.688587     -1.566916     -2.984381
  C      -2.961695     -2.117984     -2.855572
  C      -3.901405     -1.930365     -3.865903
  C      -3.548462     -1.194181     -4.994338
  Cl     -4.736343     -0.953414     -6.271077
  C      -2.273814     -0.654409     -5.133412
  C      -1.335453     -0.852039     -4.121318
  C       0.915363     -0.959159     -2.026340
  C       1.172459      0.462503     -1.531609
  N       2.482419     -0.020693     -0.984982
  S       3.916280      0.826339     -1.209999
  O       4.981223     -0.177670     -1.148817
  O       3.822717      1.745294     -2.351178
  C       4.003836      1.855999      0.264985
  C       3.683407      3.206561      0.175151
  C       3.754850      4.000363      1.319111
  C       4.153091      3.464760      2.547445
  C       4.266668      4.336227      3.774453
  C       4.476941      2.101204      2.606028
  C       4.406043      1.294879      1.476024
  C       2.320090     -1.392867     -1.584293
  C      -1.367693     -2.633082      0.799608
  O      -0.697151     -3.773120      0.485849
  C      -0.604318     -4.812330      1.456091
  C      -2.007453     -2.438172      2.020895
  H      -4.807800      0.226023      3.129889
  H      -3.308170      0.929905      3.811208
  H      -4.353532     -0.099782      4.821504
  H      -3.218100      0.708388      1.490846
  H      -2.308295      2.306965      0.105355
  H      -2.568939      2.294078     -1.656845
  H      -3.792839      1.573792     -0.581594
  H      -3.230699     -2.684630     -1.971454
  H      -4.894698     -2.353131     -3.780616
  H      -2.014933     -0.090986     -6.021286
  H      -0.325812     -0.464609     -4.203361
  H       0.521632      0.846870     -0.740570
  H       1.289599      1.224467     -2.310705
  H       3.398442      3.626869     -0.781419
  H       3.505249      5.054431      1.249712
  H       3.951503      3.801864      4.674429
  H       5.303433      4.654399      3.930757
  H       3.657026      5.237730      3.681413
  H       4.793217      1.667210      3.549368
  H       4.668254      0.245013      1.525579
  H       3.017380     -1.586500     -2.405675
  H       2.425808     -2.182690     -0.835069
  H      -0.090663     -4.466492      2.358691
  H      -0.019650     -5.600174      0.984326
  H      -1.593791     -5.199836      1.719531
  H      -2.007396     -3.185362      2.800934
60
Coordinates from ORCA-job file E -2654.970397631007
  C      -3.901882      0.103218      3.824476
  O      -3.206118     -1.092860      3.490694
  C      -2.632518     -1.204139      2.261536
  C      -2.674504     -0.199528      1.293026
  C      -2.035439     -0.417395      0.064195
  O      -2.017452      0.511777     -0.927683
  C      -2.707529      1.744804     -0.751331
  C      -1.387763     -1.630114     -0.207799
  S      -0.401652     -1.946447     -1.750477
  C      -1.691998     -1.574184     -2.992921
  C      -2.966982     -2.116883     -2.847946
  C      -3.914586     -1.932901     -3.851494
  C      -3.567683     -1.208320     -4.989321
  Cl     -4.766077     -0.970158     -6.256620
  C      -2.291055     -0.677788     -5.144724
  C      -1.344821     -0.871660     -4.139248
  C       0.919833     -0.964842     -2.056625
  C       1.180557      0.461170     -1.574551
  N       2.479853     -0.025487     -1.005910
  S       3.919054      0.821053     -1.199543
  O       4.981902     -0.184402     -1.124414
  O       3.844834      1.747489     -2.336073
  C       3.985504      1.842131      0.281902
  C       3.633525      3.185725      0.201465
  C       3.690561      3.973676      1.349917
  C       4.105674      3.439706      2.573647
  C       4.205703      4.307511      3.804404
  C       4.460862      2.083918      2.622694
  C       4.404535      1.282957      1.487784
  C       2.323575     -1.396153     -1.608999
  C      -1.350962     -2.620105      0.794846
  O      -0.691483     -3.766309      0.479811
  C      -0.604076     -4.805190      1.450906
  C      -1.976211     -2.414956      2.022086
  H      -4.744964      0.276020      3.147148
  H      -3.232825      0.970232      3.810507
  H      -4.276782     -0.046200      4.835650
  H      -3.175682      0.735040      1.488066
  H      -2.286713      2.321995      0.078724
  H      -2.566146      2.294063     -1.680455
  H      -3.777183      1.580735     -0.586129
  H      -3.231218     -2.674468     -1.956697
  H      -4.909443     -2.349183     -3.753483
  H      -2.036927     -0.124062     -6.040036
  H      -0.333788     -0.490688     -4.233510
  H       0.521611      0.861877     -0.799014
  H       1.315106      1.210190     -2.363380
  H       3.338373      3.606189     -0.751939
  H       3.417522      5.022383      1.287824
  H       3.930286      3.755178      4.706423
  H       5.231075      4.668134      3.943003
  H       3.557392      5.183344      3.728494
  H       4.791268      1.651725      3.561998
  H       4.692454      0.239485      1.528874
  H       3.023875     -1.585042     -2.429094
  H       2.427854     -2.188873     -0.862837
  H      -0.077639     -4.465133      2.348351
  H      -0.034503     -5.601730      0.975302
  H      -1.596394     -5.178605      1.723866
  H      -1.971789     -3.157918      2.806135
60
Coordinates from ORCA-job file E -2654.970346392281
  C      -3.808286      0.166343      3.835019
  O      -3.129030     -1.038586      3.499070
  C      -2.574807     -1.163338      2.262321
  C      -2.626946     -0.166585      1.286241
  C      -2.007698     -0.397427      0.049767
  O      -2.002283      0.523211     -0.950389
  C      -2.695095      1.755257     -0.778331
  C      -1.369510     -1.615203     -0.222226
  S      -0.397916     -1.944034     -1.772678
  C      -1.699875     -1.582626     -3.005305
  C      -2.975029     -2.118732     -2.838159
  C      -3.934483     -1.942763     -3.831726
  C      -3.599291     -1.232243     -4.981935
  Cl     -4.813046     -1.002532     -6.236015
  C      -2.322677     -0.708730     -5.159395
  C      -1.364534     -0.894395     -4.163605
  C       0.924097     -0.968899     -2.102492
  C       1.192130      0.460772     -1.632255
  N       2.474447     -0.034483     -1.032645
  S       3.921700      0.809846     -1.180696
  O       4.980099     -0.198837     -1.085565
  O       3.877310      1.746931     -2.310005
  C       3.957712      1.818720      0.309260
  C       3.576574      3.155245      0.237757
  C       3.615354      3.935818      1.391488
  C       4.041036      3.402056      2.612099
  C       4.124673      4.265372      3.847211
  C       4.424318      2.054118      2.652265
  C       4.386240      1.259904      1.511497
  C       2.326494     -1.399450     -1.649467
  C      -1.323343     -2.597799      0.787345
  O      -0.676137     -3.750760      0.471378
  C      -0.588005     -4.785939      1.446378
  C      -1.928158     -2.379217      2.022628
  H      -4.660224      0.342477      3.169748
  H      -3.131174      1.026645      3.804140
  H      -4.168643      0.027784      4.853001
  H      -3.121469      0.771592      1.480873
  H      -2.264956      2.344010      0.038756
  H      -2.569861      2.294204     -1.715787
  H      -3.761455      1.588538     -0.595460
  H      -3.229938     -2.665552     -1.937606
  H      -4.929498     -2.354176     -3.716278
  H      -2.077874     -0.166439     -6.064251
  H      -0.353410     -0.518266     -4.274799
  H       0.521816      0.883404     -0.879209
  H       1.354474      1.193069     -2.431594
  H       3.276546      3.577108     -0.713504
  H       3.321372      4.979244      1.336307
  H       3.896751      3.694351      4.750653
  H       5.133747      4.675821      3.965831
  H       3.432459      5.108589      3.791355
  H       4.763772      1.622624      3.588643
  H       4.697862      0.222969      1.544275
  H       3.031042     -1.576439     -2.468842
  H       2.428805     -2.201015     -0.912865
  H      -0.044143     -4.448494      2.334393
  H      -0.035808     -5.592202      0.966679
  H      -1.580999     -5.145048      1.735639
  H      -1.915227     -3.115809      2.812568
60
Coordinates from ORCA-job file E -2654.970311152465
  C      -3.787533      0.180641      3.836364
  O      -3.113120     -1.026427      3.498389
  C      -2.561750     -1.152395      2.260453
  C      -2.616009     -0.156528      1.283462
  C      -2.000482     -0.389029      0.045513
  O      -1.997330      0.530579     -0.955699
  C      -2.693234      1.761044     -0.785170
  C      -1.363856     -1.607540     -0.227285
  S      -0.397601     -1.938482     -1.780780
  C      -1.704499     -1.581626     -3.008981
  C      -2.978730     -2.117562     -2.834057
  C      -3.942186     -1.947308     -3.824735
  C      -3.612132     -1.242177     -4.979734
  Cl     -4.830884     -1.020249     -6.230333
  C      -2.336795     -0.718132     -5.164582
  C      -1.374486     -0.898186     -4.171677
  C       0.924816     -0.966341     -2.120918
  C       1.199510      0.462453     -1.649998
  N       2.472033     -0.041933     -1.036123
  S       3.926148      0.796745     -1.165014
  O       4.978659     -0.216871     -1.056010
  O       3.900786      1.734442     -2.294483
  C       3.950376      1.805852      0.324499
  C       3.552360      3.137690      0.253066
  C       3.587199      3.920024      1.405397
  C       4.025963      3.393059      2.624638
  C       4.107508      4.260281      3.857150
  C       4.425163      2.050042      2.664856
  C       4.390810      1.253674      1.525260
  C       2.325864     -1.400592     -1.667421
  C      -1.315629     -2.589192      0.783177
  O      -0.671242     -3.743352      0.466294
  C      -0.580333     -4.777331      1.442329
  C      -1.916023     -2.368575      2.020271
  H      -4.641869      0.358750      3.174690
  H      -3.108054      1.038917      3.801822
  H      -4.143898      0.043833      4.855979
  H      -3.110051      0.781856      1.478294
  H      -2.263292      2.352949      0.029750
  H      -2.571322      2.298147     -1.724132
  H      -3.758781      1.591757     -0.599889
  H      -3.229440     -2.660538     -1.930039
  H      -4.936323     -2.359148     -3.703368
  H      -2.096078     -0.179999     -6.073002
  H      -0.364207     -0.521950     -4.289273
  H       0.524163      0.895138     -0.907652
  H       1.378680      1.188173     -2.451846
  H       3.244137      3.555315     -0.697464
  H       3.280991      4.959938      1.350316
  H       3.911549      3.684656      4.765076
  H       5.106769      4.698755      3.957064
  H       3.391357      5.083991      3.812440
  H       4.774986      1.624061      3.599920
  H       4.715794      0.220827      1.556909
  H       3.031948     -1.567438     -2.487805
  H       2.426666     -2.210924     -0.940511
  H      -0.031046     -4.439844      2.326985
  H      -0.032405     -5.585496      0.960920
  H      -1.572513     -5.133996      1.737318
  H      -1.901098     -3.104430      2.810879
60
Coordinates from ORCA-job file E -2654.970288045728
  C      -3.789787      0.186668      3.832038
  O      -3.113375     -1.019410      3.494523
  C      -2.559837     -1.144012      2.257473
  C      -2.616255     -0.148964      1.279596
  C      -1.998686     -0.380568      0.042558
  O      -1.996344      0.538441     -0.959103
  C      -2.698584      1.765721     -0.791695
  C      -1.358717     -1.597618     -0.229050
  S      -0.397440     -1.929265     -1.784748
  C      -1.709144     -1.578341     -3.009047
  C      -2.980961     -2.118584     -2.829229
  C      -3.947010     -1.957041     -3.818833
  C      -3.622117     -1.256362     -4.977915
  Cl     -4.843678     -1.047668     -6.228059
  C      -2.349703     -0.726885     -5.167274
  C      -1.384681     -0.898172     -4.175382
  C       0.924052     -0.957815     -2.134635
  C       1.204957      0.468109     -1.657016
  N       2.471670     -0.045698     -1.037933
  S       3.931531      0.787288     -1.155611
  O       4.978363     -0.231461     -1.038548
  O       3.920352      1.725410     -2.284970
  C       3.950260      1.795960      0.333983
  C       3.541997      3.124887      0.264437
  C       3.575577      3.906947      1.416701
  C       4.023767      3.382939      2.634022
  C       4.105370      4.251234      3.865766
  C       4.432783      2.043025      2.672385
  C       4.399347      1.246547      1.532633
  C       2.324862     -1.396964     -1.685159
  C      -1.308124     -2.578149      0.782428
  O      -0.660994     -3.730854      0.466655
  C      -0.565581     -4.762972      1.444225
  C      -1.909596     -2.358058      2.019032
  H      -4.645017      0.362645      3.170936
  H      -3.111979      1.046183      3.796218
  H      -4.145133      0.049920      4.852005
  H      -3.113700      0.787933      1.473036
  H      -2.273228      2.360903      0.023234
  H      -2.577315      2.302079     -1.731160
  H      -3.763662      1.591459     -0.608360
  H      -3.227383     -2.658757     -1.922379
  H      -4.939076     -2.372754     -3.693713
  H      -2.113111     -0.191772     -6.078551
  H      -0.376338     -0.518440     -4.297351
  H       0.527687      0.904707     -0.918948
  H       1.394557      1.192646     -2.457638
  H       3.227579      3.541094     -0.684718
  H       3.261536      4.944626      1.363291
  H       3.936771      3.670905      4.776105
  H       5.096028      4.711914      3.950057
  H       3.370423      5.058845      3.833170
  H       4.789733      1.619398      3.605793
  H       4.731856      0.216059      1.561948
  H       3.030229     -1.552841     -2.508504
  H       2.426184     -2.216922     -0.969377
  H      -0.016383     -4.422211      2.327658
  H      -0.015489     -5.570005      0.963409
  H      -1.556150     -5.122636      1.740907
  H      -1.892895     -3.093292      2.810187
60
Coordinates from ORCA-job file E -2654.970263312891
  C      -3.751829      0.235833      3.824078
  O      -3.072190     -0.970083      3.492366
  C      -2.526963     -1.102879      2.252637
  C      -2.598982     -0.118490      1.264961
  C      -1.988500     -0.357821      0.025975
  O      -1.999532      0.551164     -0.984457
  C      -2.717568      1.770796     -0.828053
  C      -1.341138     -1.572633     -0.238120
  S      -0.395398     -1.913856     -1.799478
  C      -1.720398     -1.582191     -3.013823
  C      -2.985408     -2.133435     -2.818814
  C      -3.960535     -1.992730     -3.802570
  C      -3.651482     -1.302317     -4.971984
  Cl     -4.883620     -1.123307     -6.216319
  C      -2.386525     -0.760711     -5.176202
  C      -1.412393     -0.910745     -4.189764
  C       0.920729     -0.940966     -2.173726
  C       1.207543      0.481698     -1.686993
  N       2.466519     -0.043279     -1.060625
  S       3.930774      0.787762     -1.151334
  O       4.973544     -0.235310     -1.034170
  O       3.936553      1.739704     -2.268995
  C       3.935934      1.777341      0.350959
  C       3.532209      3.108332      0.295358
  C       3.558460      3.874832      1.457921
  C       3.994739      3.333275      2.672130
  C       4.070261      4.185991      3.915057
  C       4.398515      1.991667      2.696558
  C       4.372324      1.210353      1.545910
  C       2.323736     -1.382552     -1.732917
  C      -1.275156     -2.542279      0.782976
  O      -0.621244     -3.692744      0.474031
  C      -0.510208     -4.714067      1.461252
  C      -1.868544     -2.313986      2.021899
  H      -4.614988      0.399938      3.170257
  H      -3.079359      1.098645      3.771776
  H      -4.095696      0.108029      4.849106
  H      -3.102724      0.816302      1.452283
  H      -2.295914      2.381795     -0.022982
  H      -2.608717      2.297121     -1.774673
  H      -3.779066      1.584193     -0.636502
  H      -3.219023     -2.666817     -1.904570
  H      -4.947127     -2.417593     -3.665433
  H      -2.162397     -0.233109     -6.094979
  H      -0.408981     -0.522307     -4.323982
  H       0.526778      0.922181     -0.954794
  H       1.409864      1.205486     -2.485244
  H       3.227497      3.538510     -0.650754
  H       3.248215      4.914197      1.415675
  H       3.929416      3.588640      4.818927
  H       5.049588      4.671453      3.992566
  H       3.314269      4.974636      3.904149
  H       4.745693      1.554437      3.627334
  H       4.700521      0.178257      1.563929
  H       3.027399     -1.518183     -2.561525
  H       2.430110     -2.217466     -1.035593
  H       0.042232     -4.359671      2.337224
  H       0.043354     -5.521178      0.984622
  H      -1.495564     -5.079102      1.768504
  H      -1.839605     -3.040764      2.820458
60
Coordinates from ORCA-job file E -2654.970197561050
  C      -3.740227      0.303162      3.795867
  O      -3.036121     -0.893150      3.480465
  C      -2.495318     -1.035007      2.240040
  C      -2.598021     -0.071139      1.234840
  C      -1.988639     -0.318110     -0.003124
  O      -2.022139      0.573357     -1.027980
  C      -2.775090      1.774677     -0.894147
  C      -1.314969     -1.522436     -0.249463
  S      -0.394350     -1.878460     -1.817477
  C      -1.740754     -1.583730     -3.016335
  C      -2.990247     -2.162521     -2.800580
  C      -3.977059     -2.064470     -3.777695
  C      -3.695148     -1.389571     -4.962731
  Cl     -4.939464     -1.272626     -6.202297
  C      -2.447206     -0.817146     -5.186604
  C      -1.461288     -0.924242     -4.206322
  C       0.909328     -0.898481     -2.230329
  C       1.205872      0.513420     -1.714748
  N       2.458398     -0.032561     -1.091903
  S       3.930123      0.791738     -1.153842
  O       4.964200     -0.241811     -1.049955
  O       3.955658      1.767054     -2.250864
  C       3.927528      1.746375      0.371135
  C       3.541581      3.083412      0.344581
  C       3.563449      3.819361      1.526577
  C       3.976622      3.240912      2.732135
  C       4.046215      4.060741      3.997297
  C       4.362678      1.894108      2.727205
  C       4.341541      1.143086      1.556186
  C       2.316540     -1.347840     -1.810232
  C      -1.217660     -2.470439      0.789409
  O      -0.535492     -3.608305      0.497602
  C      -0.386524     -4.605377      1.504513
  C      -1.807949     -2.233353      2.027887
  H      -4.614834      0.433156      3.149602
  H      -3.089376      1.180372      3.717475
  H      -4.068802      0.188382      4.827399
  H      -3.122724      0.854762      1.408224
  H      -2.369735      2.413649     -0.102563
  H      -2.682930      2.284903     -1.851274
  H      -3.830253      1.561027     -0.696365
  H      -3.201786     -2.686026     -1.875249
  H      -4.951091     -2.512140     -3.624315
  H      -2.244442     -0.300267     -6.116385
  H      -0.469109     -0.513589     -4.356932
  H       0.524015      0.948536     -0.980454
  H       1.419534      1.247234     -2.500833
  H       3.253168      3.541925     -0.593369
  H       3.266600      4.863357      1.507599
  H       3.947023      3.433166      4.885897
  H       5.007959      4.580980      4.068905
  H       3.261400      4.820524      4.025159
  H       4.691592      1.428432      3.650729
  H       4.655297      0.106408      1.551147
  H       3.014035     -1.447802     -2.649369
  H       2.432688     -2.209062     -1.147588
  H       0.159324     -4.215662      2.369439
  H       0.189619     -5.403995      1.040585
  H      -1.358061     -4.995051      1.825178
  H      -1.755180     -2.943849      2.839748
60
Coordinates from ORCA-job file E -2654.970256982192
  C      -3.726390      0.305154      3.800646
  O      -3.025300     -0.892888      3.485103
  C      -2.488608     -1.037923      2.243182
  C      -2.590699     -0.074449      1.237727
  C      -1.985920     -0.324281     -0.001929
  O      -2.020606      0.566321     -1.027540
  C      -2.767085      1.771343     -0.890822
  C      -1.316490     -1.530800     -0.249080
  S      -0.394146     -1.888805     -1.816392
  C      -1.737308     -1.588410     -3.017848
  C      -2.989507     -2.162122     -2.804746
  C      -3.975742     -2.054405     -3.781435
  C      -3.690381     -1.374791     -4.963076
  Cl     -4.934836     -1.242478     -6.200926
  C      -2.439082     -0.808869     -5.184690
  C      -1.453807     -0.925759     -4.204942
  C       0.911300     -0.909546     -2.223170
  C       1.202159      0.505996     -1.715719
  N       2.458150     -0.031063     -1.092981
  S       3.925324      0.798678     -1.160697
  O       4.964423     -0.230153     -1.062149
  O       3.940350      1.774889     -2.257166
  C       3.924466      1.752456      0.364993
  C       3.544104      3.091074      0.337334
  C       3.563761      3.826704      1.519786
  C       3.968993      3.246270      2.726896
  C       4.034822      4.064938      3.993040
  C       4.349976      1.897876      2.723014
  C       4.331165      1.147380      1.551785
  C       2.318354     -1.354121     -1.797139
  C      -1.219769     -2.478673      0.789996
  O      -0.541890     -3.619070      0.497173
  C      -0.396859     -4.617487      1.503356
  C      -1.806529     -2.239129      2.029749
  H      -4.601298      0.436836      3.155141
  H      -3.073575      1.180844      3.721242
  H      -4.054143      0.191723      4.832601
  H      -3.111493      0.853460      1.412107
  H      -2.355029      2.408617     -0.101314
  H      -2.676907      2.280734     -1.848586
  H      -3.822373      1.562933     -0.688119
  H      -3.204186     -2.688205     -1.881593
  H      -4.952226     -2.497354     -3.630010
  H      -2.233560     -0.288785     -6.112078
  H      -0.459464     -0.519146     -4.352679
  H       0.520250      0.939872     -0.980591
  H       1.409346      1.238862     -2.504316
  H       3.260942      3.550394     -0.601779
  H       3.271196      4.871875      1.499696
  H       3.917082      3.438732      4.880389
  H       5.002339      4.572655      4.075956
  H       3.259650      4.834810      4.011766
  H       4.672950      1.430641      3.647873
  H       4.641229      0.109557      1.548449
  H       3.017572     -1.464152     -2.633428
  H       2.433274     -2.207162     -1.123674
  H       0.151510     -4.231032      2.368182
  H       0.175079     -5.418619      1.038540
  H      -1.370070     -5.002579      1.824525
  H      -1.754489     -2.949368      2.841868
60
Coordinates from ORCA-job file E -2654.970305887559
  C      -3.708910      0.329419      3.795468
  O      -3.002247     -0.866996      3.486270
  C      -2.473284     -1.020562      2.241984
  C      -2.585436     -0.065627      1.229717
  C      -1.987626     -0.322744     -0.011836
  O      -2.032534      0.559497     -1.044164
  C      -2.780409      1.764122     -0.911448
  C      -1.314128     -1.528248     -0.253111
  S      -0.394614     -1.892986     -1.819720
  C      -1.739106     -1.598267     -3.021533
  C      -2.988539     -2.177695     -2.808468
  C      -3.976543     -2.070345     -3.783422
  C      -3.695304     -1.385456     -4.963145
  Cl     -4.942352     -1.251725     -6.198150
  C      -2.446032     -0.815113     -5.185002
  C      -1.459109     -0.931484     -4.206906
  C       0.907802     -0.910024     -2.226490
  C       1.190467      0.506445     -1.718094
  N       2.452420     -0.022423     -1.101292
  S       3.913044      0.816370     -1.172788
  O       4.959269     -0.206694     -1.093256
  O       3.911873      1.803448     -2.259746
  C       3.917727      1.754784      0.362729
  C       3.556910      3.098948      0.345430
  C       3.577418      3.822785      1.535451
  C       3.963264      3.224657      2.740057
  C       4.027758      4.029150      4.015353
  C       4.325093      1.870881      2.725684
  C       4.306095      1.132569      1.547001
  C       2.316648     -1.348769     -1.799829
  C      -1.207202     -2.467593      0.792772
  O      -0.524245     -3.606462      0.505415
  C      -0.371011     -4.597232      1.517987
  C      -1.788337     -2.221126      2.033796
  H      -4.587861      0.450372      3.153357
  H      -3.061807      1.208342      3.705398
  H      -4.030587      0.222839      4.830073
  H      -3.108133      0.861894      1.400275
  H      -2.363844      2.408250     -0.129885
  H      -2.698200      2.266224     -1.873777
  H      -3.833780      1.555209     -0.699497
  H      -3.200274     -2.707396     -1.886656
  H      -4.951208     -2.517299     -3.632127
  H      -2.243461     -0.291669     -6.111161
  H      -0.466239     -0.520718     -4.353857
  H       0.508709      0.931585     -0.977448
  H       1.387493      1.245022     -2.503808
  H       3.286797      3.570442     -0.591449
  H       3.300291      4.872267      1.523072
  H       3.892020      3.395657      4.894942
  H       5.001225      4.522634      4.113402
  H       3.263123      4.809531      4.034096
  H       4.633317      1.390005      3.648602
  H       4.602196      0.090679      1.536940
  H       3.016140     -1.461122     -2.635379
  H       2.433971     -2.197948     -1.121793
  H       0.177337     -4.201920      2.378828
  H       0.204198     -5.398384      1.057235
  H      -1.341374     -4.985334      1.844188
  H      -1.728871     -2.924665      2.851213
60
Coordinates from ORCA-job file E -2654.970343617761
  C      -3.711321      0.344714      3.787833
  O      -2.995376     -0.848057      3.486142
  C      -2.471714     -1.008951      2.240445
  C      -2.594296     -0.063028      1.221083
  C      -2.001134     -0.326677     -0.021369
  O      -2.055771      0.546797     -1.060517
  C      -2.803686      1.751822     -0.932072
  C      -1.320742     -1.529790     -0.255534
  S      -0.399283     -1.898169     -1.819160
  C      -1.741048     -1.608131     -3.025463
  C      -2.986735     -2.197873     -2.820213
  C      -3.971861     -2.091314     -3.798269
  C      -3.690975     -1.397312     -4.972816
  Cl     -4.934435     -1.264049     -6.211409
  C      -2.444691     -0.817452     -5.186911
  C      -1.460759     -0.932781     -4.205736
  C       0.899268     -0.908313     -2.219967
  C       1.170249      0.507848     -1.705596
  N       2.441761     -0.010586     -1.100206
  S       3.893817      0.839659     -1.186620
  O       4.948462     -0.176311     -1.133767
  O       3.867058      1.836607     -2.264404
  C       3.915202      1.763167      0.358282
  C       3.576009      3.113042      0.353996
  C       3.606983      3.825086      1.551239
  C       3.980964      3.209129      2.750401
  C       4.054421      3.999220      4.034261
  C       4.321161      1.849776      2.722954
  C       4.292321      1.123647      1.537195
  C       2.310226     -1.340227     -1.793427
  C      -1.203111     -2.459830      0.797570
  O      -0.511886     -3.595481      0.517077
  C      -0.346922     -4.576432      1.537371
  C      -1.781058     -2.207374      2.038803
  H      -4.593086      0.452942      3.147297
  H      -3.072097      1.228473      3.688918
  H      -4.029014      0.243834      4.824246
  H      -3.121097      0.863040      1.386813
  H      -2.382863      2.401724     -0.157582
  H      -2.727468      2.247045     -1.898454
  H      -3.855675      1.543783     -0.712499
  H      -3.198244     -2.734691     -1.902430
  H      -4.943871     -2.546124     -3.653565
  H      -2.242064     -0.287528     -6.109376
  H      -0.469933     -0.514735     -4.346209
  H       0.489546      0.918516     -0.955493
  H       1.352391      1.256258     -2.485395
  H       3.312535      3.596616     -0.578560
  H       3.346717      4.878943      1.548565
  H       3.901948      3.359586      4.906675
  H       5.036404      4.473337      4.142365
  H       3.304463      4.793641      4.057099
  H       4.619954      1.354999      3.641642
  H       4.572112      0.077339      1.518611
  H       3.010137     -1.454510     -2.628099
  H       2.430687     -2.185175     -1.110491
  H       0.199495     -4.168966      2.393776
  H       0.234909     -5.375861      1.081950
  H      -1.312892     -4.970956      1.868880
  H      -1.714091     -2.903908      2.861621
60
Coordinates from ORCA-job file E -2654.970352045475
  C      -3.726010      0.355082      3.779623
  O      -3.000444     -0.833990      3.486819
  C      -2.482399     -1.003802      2.239871
  C      -2.615209     -0.068091      1.212522
  C      -2.027370     -0.340111     -0.030722
  O      -2.092125      0.522927     -1.077832
  C      -2.832480      1.732764     -0.952034
  C      -1.340855     -1.541336     -0.256782
  S      -0.409997     -1.910302     -1.813817
  C      -1.741983     -1.623636     -3.031821
  C      -2.982697     -2.229546     -2.846794
  C      -3.957961     -2.121638     -3.834709
  C      -3.671309     -1.411006     -4.997963
  Cl     -4.902104     -1.276252     -6.248917
  C      -2.429038     -0.815495     -5.191564
  C      -1.455195     -0.931738     -4.200621
  C       0.882727     -0.908273     -2.197730
  C       1.132861      0.507614     -1.674171
  N       2.420161      0.008294     -1.087151
  S       3.856046      0.878888     -1.206351
  O       4.924601     -0.123629     -1.197550
  O       3.781496      1.886253     -2.272385
  C       3.911784      1.785097      0.348864
  C       3.604660      3.142523      0.362555
  C       3.659826      3.840130      1.567894
  C       4.025390      3.201881      2.757703
  C       4.122515      3.973978      4.051054
  C       4.333209      1.835062      2.712346
  C       4.280826      1.123878      1.518684
  C       2.296872     -1.327478     -1.770263
  C      -1.212195     -2.460461      0.804603
  O      -0.512371     -3.592978      0.532177
  C      -0.330983     -4.560325      1.562589
  C      -1.786442     -2.200445      2.045913
  H      -4.609630      0.450406      3.139589
  H      -3.094596      1.243527      3.672401
  H      -4.041115      0.260411      4.817420
  H      -3.145980      0.856741      1.372461
  H      -2.402073      2.385443     -0.185147
  H      -2.761027      2.220933     -1.922355
  H      -3.883942      1.532150     -0.723147
  H      -3.198493     -2.779524     -1.937769
  H      -4.926410     -2.588828     -3.706762
  H      -2.221611     -0.272980     -6.105626
  H      -0.467024     -0.502024     -4.324529
  H       0.453757      0.894919     -0.909825
  H       1.290551      1.270683     -2.444738
  H       3.343852      3.641107     -0.562770
  H       3.424063      4.899684      1.578575
  H       3.944524      3.330023      4.915507
  H       5.120013      4.412229      4.168009
  H       3.400568      4.793711      4.080957
  H       4.624451      1.322591      3.623772
  H       4.535345      0.071365      1.488673
  H       2.998750     -1.445571     -2.602270
  H       2.422212     -2.164492     -1.078143
  H       0.214361     -4.136865      2.411929
  H       0.258405     -5.357846      1.113560
  H      -1.290651     -4.962583      1.902951
  H      -1.712108     -2.889046      2.874739
60
Coordinates from ORCA-job file E -2654.970296650359
  C      -3.821042      0.296543      3.774829
  O      -3.082338     -0.885464      3.486786
  C      -2.549920     -1.048070      2.244830
  C      -2.671936     -0.107416      1.220585
  C      -2.071512     -0.374015     -0.018020
  O      -2.125461      0.493489     -1.062041
  C      -2.842558      1.716275     -0.928802
  C      -1.382602     -1.574226     -0.242525
  S      -0.424427     -1.928878     -1.786541
  C      -1.731814     -1.628168     -3.028109
  C      -2.972769     -2.243591     -2.883826
  C      -3.924148     -2.121154     -3.893440
  C      -3.612698     -1.387574     -5.035887
  Cl     -4.812850     -1.236089     -6.314488
  C      -2.369602     -0.781688     -5.187905
  C      -1.419880     -0.912348     -4.175801
  C       0.866510     -0.915017     -2.131139
  C       1.093786      0.500458     -1.599842
  N       2.404690      0.027257     -1.045345
  S       3.819544      0.916515     -1.233744
  O       4.899649     -0.072647     -1.272483
  O       3.679441      1.916904     -2.299941
  C       3.934026      1.828967      0.315997
  C       3.648960      3.190972      0.334750
  C       3.741734      3.889609      1.537711
  C       4.122885      3.247675      2.720318
  C       4.256289      4.017735      4.011834
  C       4.409496      1.876101      2.669893
  C       4.319505      1.164408      1.479061
  C       2.282557     -1.322418     -1.701579
  C      -1.262971     -2.496876      0.816734
  O      -0.557006     -3.626537      0.547414
  C      -0.373287     -4.591467      1.579568
  C      -1.850666     -2.243112      2.052944
  H      -4.694867      0.389497      3.121151
  H      -3.194579      1.190278      3.683378
  H      -4.152149      0.193365      4.806834
  H      -3.204804      0.816438      1.379230
  H      -2.404446      2.352132     -0.152182
  H      -2.754714      2.212760     -1.893523
  H      -3.899498      1.534654     -0.709295
  H      -3.207567     -2.811409     -1.990576
  H      -4.892867     -2.595573     -3.798743
  H      -2.142773     -0.220739     -6.086109
  H      -0.430947     -0.476127     -4.267060
  H       0.423710      0.858767     -0.812881
  H       1.214151      1.280184     -2.360073
  H       3.371126      3.690827     -0.584924
  H       3.520842      4.952317      1.551944
  H       4.043973      3.385886      4.877676
  H       5.274323      4.405219      4.130709
  H       3.576366      4.872700      4.038215
  H       4.711426      1.360033      3.575852
  H       4.554927      0.107505      1.447608
  H       2.985530     -1.458454     -2.529288
  H       2.410453     -2.141922     -0.988719
  H       0.162797     -4.162567      2.432135
  H       0.226337     -5.383789      1.134879
  H      -1.331210     -5.002491      1.914212
  H      -1.785124     -2.935643      2.879257
60
Coordinates from ORCA-job file E -2654.970403316838
  C      -3.899540      0.174180      3.801975
  O      -3.174464     -1.010529      3.491334
  C      -2.614640     -1.140109      2.257680
  C      -2.697721     -0.164769      1.261925
  C      -2.074199     -0.402703      0.028813
  O      -2.090032      0.498869     -0.987537
  C      -2.782469      1.732337     -0.826164
  C      -1.403706     -1.608313     -0.221144
  S      -0.429776     -1.935756     -1.763719
  C      -1.720124     -1.589642     -3.011080
  C      -2.971113     -2.190910     -2.895794
  C      -3.906054     -2.037857     -3.916640
  C      -3.569011     -1.287759     -5.040654
  Cl     -4.747627     -1.101278     -6.334859
  C      -2.317626     -0.692169     -5.162426
  C      -1.384143     -0.854055     -4.139780
  C       0.879281     -0.938213     -2.080965
  C       1.127501      0.473204     -1.548482
  N       2.431822     -0.018847     -0.993328
  S       3.860901      0.844143     -1.207706
  O       4.928671     -0.158998     -1.181713
  O       3.748506      1.790432     -2.325043
  C       3.967054      1.832802      0.295019
  C       3.679812      3.193631      0.248498
  C       3.767171      3.948082      1.417202
  C       4.147283      3.363506      2.629813
  C       4.277440      4.193677      3.883839
  C       4.437084      1.991987      2.645064
  C       4.350254      1.224309      1.488857
  C       2.286301     -1.368231     -1.646374
  C      -1.322177     -2.565431      0.810564
  O      -0.634458     -3.700654      0.518683
  C      -0.477037     -4.694616      1.527210
  C      -1.929424     -2.339238      2.042750
  H      -4.757369      0.303426      3.133460
  H      -3.256509      1.059389      3.753014
  H      -4.254859      0.043192      4.822709
  H      -3.220225      0.761856      1.438096
  H      -2.348385      2.329737     -0.017454
  H      -2.661275      2.260677     -1.770107
  H      -3.848081      1.567885     -0.637012
  H      -3.225388     -2.771813     -2.016487
  H      -4.881862     -2.501688     -3.844816
  H      -2.071820     -0.115754     -6.045697
  H      -0.389107     -0.428216     -4.209558
  H       0.461499      0.844021     -0.763974
  H       1.262155      1.248480     -2.311075
  H       3.404400      3.650615     -0.694046
  H       3.542416      5.009474      1.381510
  H       4.038888      3.609464      4.775982
  H       5.301938      4.564427      4.000247
  H       3.616039      5.062948      3.858039
  H       4.737164      1.519494      3.575078
  H       4.584482      0.166909      1.506721
  H       2.989917     -1.518835     -2.471125
  H       2.398098     -2.187710     -0.930734
  H       0.056009     -4.296058      2.396251
  H       0.115534     -5.484146      1.068341
  H      -1.444383     -5.099909      1.840939
  H      -1.893018     -3.058947      2.847381
60
Coordinates from ORCA-job file E -2654.970298778140
  C      -4.081952     -0.051004      3.830906
  O      -3.371608     -1.234605      3.484244
  C      -2.754591     -1.305326      2.273469
  C      -2.766237     -0.272219      1.333315
  C      -2.093501     -0.458705      0.117116
  O      -2.039677      0.499481     -0.845193
  C      -2.689234      1.748158     -0.632276
  C      -1.449396     -1.668953     -0.176232
  S      -0.437112     -1.944380     -1.708615
  C      -1.690672     -1.523624     -2.970367
  C      -2.954100     -2.107481     -2.916873
  C      -3.852496     -1.903286     -3.961580
  C      -3.467938     -1.119448     -5.046096
  Cl     -4.598871     -0.875042     -6.373313
  C      -2.207020     -0.534293     -5.103394
  C      -1.309682     -0.748368     -4.058269
  C       0.898147     -0.969962     -1.969886
  C       1.175795      0.433201     -1.431337
  N       2.476815     -0.083302     -0.888328
  S       3.920485      0.740710     -1.166337
  O       4.973211     -0.272069     -1.047905
  O       3.829970      1.589266     -2.361015
  C       4.031928      1.852044      0.247688
  C       3.739526      3.204017      0.096586
  C       3.830056      4.047330      1.201878
  C       4.222168      3.561010      2.453867
  C       4.358956      4.486288      3.638673
  C       4.519117      2.196571      2.574326
  C       4.425307      1.339806      1.482357
  C       2.291498     -1.433727     -1.530886
  C      -1.437781     -2.683464      0.801987
  O      -0.776445     -3.823761      0.471782
  C      -0.666588     -4.866369      1.436245
  C      -2.088107     -2.507370      2.020424
  H      -4.904887      0.139249      3.133742
  H      -3.416630      0.818281      3.862690
  H      -4.487298     -0.231537      4.825094
  H      -3.275161      0.656069      1.538415
  H      -2.269311      2.272947      0.232291
  H      -2.504133      2.330568     -1.533006
  H      -3.768217      1.618060     -0.500536
  H      -3.244564     -2.715121     -2.067511
  H      -4.836677     -2.354318     -3.938750
  H      -1.925783      0.072951     -5.954822
  H      -0.307562     -0.334808     -4.081541
  H       0.521136      0.815382     -0.642725
  H       1.321847      1.206331     -2.194291
  H       3.456351      3.587463     -0.876178
  H       3.596899      5.101202      1.086428
  H       4.074786      3.987529      4.568697
  H       5.396118      4.820594      3.752726
  H       3.737561      5.377612      3.525663
  H       4.826423      1.798686      3.536333
  H       4.657818      0.286523      1.579800
  H       2.993522     -1.611230     -2.351667
  H       2.380000     -2.249110     -0.807124
  H      -0.146614     -4.520480      2.335271
  H      -0.080163     -5.647187      0.955135
  H      -1.649590     -5.264123      1.707846
  H      -2.105845     -3.272657      2.782559
60
Coordinates from ORCA-job file E -2654.970049796543
  C      -4.200250     -0.226239      3.849970
  O      -3.537874     -1.422278      3.454256
  C      -2.859791     -1.443410      2.274715
  C      -2.767127     -0.349744      1.410152
  C      -2.045951     -0.493182      0.216009
  O      -1.895387      0.521969     -0.675565
  C      -2.477838      1.791341     -0.399965
  C      -1.456121     -1.716323     -0.132695
  S      -0.410956     -1.953538     -1.652494
  C      -1.643767     -1.487868     -2.919468
  C      -2.922757     -2.038472     -2.881338
  C      -3.807322     -1.801744     -3.931082
  C      -3.394871     -1.017079     -5.004322
  Cl     -4.508361     -0.733434     -6.338843
  C      -2.120387     -0.460307     -5.044538
  C      -1.236568     -0.708096     -3.995261
  C       0.936395     -0.987946     -1.874771
  C       1.233929      0.405572     -1.323774
  N       2.541142     -0.125826     -0.807689
  S       3.985417      0.681607     -1.138233
  O       5.041010     -0.316364     -0.943279
  O       3.902727      1.445217     -2.389334
  C       4.080340      1.887970      0.196133
  C       3.785822      3.225471     -0.048181
  C       3.854430      4.139309      1.000758
  C       4.226833      3.737437      2.288336
  C       4.338529      4.737652      3.413165
  C       4.527188      2.385387      2.502909
  C       4.454217      1.458522      1.467853
  C       2.327228     -1.472724     -1.452232
  C      -1.551395     -2.794250      0.770011
  O      -0.952247     -3.951510      0.384608
  C      -0.938973     -5.058256      1.281252
  C      -2.247101     -2.661625      1.968891
  H      -4.973708      0.059133      3.129018
  H      -3.491479      0.598881      3.976865
  H      -4.667052     -0.451581      4.807391
  H      -3.238319      0.589013      1.654117
  H      -2.072309      2.223877      0.520659
  H      -2.211253      2.424199     -1.244481
  H      -3.568216      1.722540     -0.329544
  H      -3.235545     -2.644748     -2.038943
  H      -4.803129     -2.227060     -3.919914
  H      -1.818862      0.151438     -5.885694
  H      -0.224952     -0.318551     -4.007358
  H       0.594416      0.785695     -0.521924
  H       1.374541      1.184139     -2.082639
  H       3.515804      3.544516     -1.047671
  H       3.616224      5.181732      0.814084
  H       3.994799      4.312305      4.359587
  H       5.380044      5.046290      3.555933
  H       3.753542      5.637541      3.210872
  H       4.817184      2.051816      3.494294
  H       4.682025      0.413417      1.637261
  H       3.019731     -1.660377     -2.279094
  H       2.410659     -2.289965     -0.729878
  H      -0.435271     -4.801512      2.218577
  H      -0.379662     -5.839889      0.770118
  H      -1.952391     -5.414492      1.491920
  H      -2.346979     -3.475599      2.671993
60
Coordinates from ORCA-job file E -2654.969914192005
  C      -4.378282     -0.383826      3.816281
  O      -3.696401     -1.566765      3.414075
  C      -2.969377     -1.551559      2.263976
  C      -2.847795     -0.433944      1.434233
  C      -2.082709     -0.542986      0.264086
  O      -1.914282      0.493197     -0.600295
  C      -2.507315      1.754108     -0.308415
  C      -1.472361     -1.753009     -0.094189
  S      -0.389206     -1.950145     -1.596235
  C      -1.598365     -1.432072     -2.866822
  C      -2.902782     -1.919505     -2.825478
  C      -3.777952     -1.640050     -3.872651
  C      -3.331855     -0.874013     -4.945704
  Cl     -4.434687     -0.534802     -6.276396
  C      -2.032640     -0.377594     -4.988442
  C      -1.158394     -0.669292     -3.942390
  C       0.969611     -0.992792     -1.769166
  C       1.289648      0.383560     -1.191303
  N       2.611385     -0.164407     -0.729585
  S       4.043231      0.636158     -1.129189
  O       5.110857     -0.343782     -0.910786
  O       3.933491      1.341764     -2.411882
  C       4.147299      1.901294      0.147984
  C       3.853691      3.226390     -0.155085
  C       3.921514      4.185232      0.852930
  C       4.290362      3.839492      2.157490
  C       4.398618      4.886444      3.239039
  C       4.589267      2.497663      2.431876
  C       4.518034      1.526710      1.438139
  C       2.361866     -1.502771     -1.383242
  C      -1.604421     -2.858306      0.769793
  O      -1.003319     -4.008836      0.366675
  C      -1.017491     -5.139574      1.232753
  C      -2.342735     -2.759707      1.946528
  H      -5.121735     -0.078921      3.072132
  H      -3.678083      0.438634      3.996831
  H      -4.884296     -0.637880      4.746214
  H      -3.336663      0.494451      1.682949
  H      -2.136471      2.158469      0.639195
  H      -2.210503      2.412005     -1.123238
  H      -3.599598      1.684218     -0.280402
  H      -3.242770     -2.507708     -1.980735
  H      -4.793554     -2.015606     -3.858136
  H      -1.705831      0.223118     -5.828075
  H      -0.129970     -0.327178     -3.957088
  H       0.677545      0.744890     -0.360349
  H       1.408760      1.181060     -1.934519
  H       3.583351      3.501996     -1.167366
  H       3.682387      5.218303      0.621312
  H       3.998296      4.520426      4.188251
  H       5.445886      5.157079      3.413245
  H       3.862048      5.799104      2.971500
  H       4.874865      2.206851      3.437915
  H       4.739487      0.488766      1.653671
  H       3.035777     -1.696241     -2.224291
  H       2.447439     -2.325979     -0.667778
  H      -0.543244     -4.908431      2.191825
  H      -0.442527     -5.907347      0.717972
  H      -2.036702     -5.501357      1.402374
  H      -2.470404     -3.594993      2.619489
60
Coordinates from ORCA-job file E -2654.970293243959
  C      -4.269091     -0.298272      3.824819
  O      -3.605795     -1.493875      3.428574
  C      -2.910592     -1.507122      2.258692
  C      -2.798877     -0.403087      1.411308
  C      -2.058475     -0.531826      0.227910
  O      -1.903484      0.490576     -0.654763
  C      -2.493761      1.756602     -0.378152
  C      -1.452067     -1.747312     -0.117581
  S      -0.381001     -1.970944     -1.620741
  C      -1.603422     -1.479385     -2.892876
  C      -2.903532     -1.976258     -2.830344
  C      -3.799233     -1.702244     -3.861128
  C      -3.377378     -0.930933     -4.940941
  Cl     -4.508657     -0.583316     -6.244808
  C      -2.078419     -0.437115     -5.011106
  C      -1.183988     -0.723892     -3.980725
  C       0.969476     -1.000163     -1.795571
  C       1.258907      0.389244     -1.237298
  N       2.588032     -0.128850     -0.762801
  S       4.006420      0.694791     -1.150702
  O       5.084911     -0.282000     -0.984437
  O       3.876924      1.446196     -2.405698
  C       4.107292      1.912846      0.170210
  C       3.846844      3.249676     -0.108103
  C       3.924615      4.186353      0.921556
  C       4.262411      3.803758      2.222992
  C       4.377731      4.824735      3.328018
  C       4.522480      2.447959      2.473351
  C       4.448520      1.501605      1.458312
  C       2.365666     -1.486246     -1.389068
  C      -1.581077     -2.843311      0.759085
  O      -0.985282     -3.999957      0.364213
  C      -1.015343     -5.128010      1.233950
  C      -2.304488     -2.726742      1.943521
  H      -5.027916     -0.002567      3.092484
  H      -3.558735      0.522191      3.972210
  H      -4.753797     -0.529834      4.771803
  H      -3.273050      0.533057      1.658747
  H      -2.108754      2.179941      0.555439
  H      -2.211072      2.399087     -1.210284
  H      -3.585320      1.685203     -0.331874
  H      -3.226952     -2.565742     -1.980005
  H      -4.812719     -2.082199     -3.827070
  H      -1.768026      0.161223     -5.858671
  H      -0.157236     -0.376635     -4.012260
  H       0.641832      0.741830     -0.406365
  H       1.355981      1.186377     -1.984203
  H       3.599758      3.549048     -1.119287
  H       3.721361      5.230466      0.706266
  H       3.958513      4.447427      4.264615
  H       5.427650      5.072706      3.519490
  H       3.861367      5.752338      3.072003
  H       4.789085      2.130411      3.476524
  H       4.654597      0.456660      1.655759
  H       3.047925     -1.693144     -2.220436
  H       2.455993     -2.289530     -0.651937
  H      -0.548593     -4.897385      2.196731
  H      -0.441880     -5.902300      0.727188
  H      -2.039436     -5.480396      1.395020
  H      -2.426842     -3.551714      2.629942
60
Coordinates from ORCA-job file E -2654.970234073401
  C      -4.295204     -0.360802      3.845097
  O      -3.646673     -1.560219      3.435749
  C      -2.948978     -1.569159      2.266929
  C      -2.816865     -0.456045      1.434251
  C      -2.070766     -0.579821      0.253861
  O      -1.898922      0.448835     -0.617995
  C      -2.476508      1.718749     -0.333116
  C      -1.472273     -1.795580     -0.100336
  S      -0.383483     -1.998153     -1.595611
  C      -1.586306     -1.461380     -2.870417
  C      -2.875181     -1.990936     -2.879391
  C      -3.748421     -1.668739     -3.915388
  C      -3.316439     -0.815912     -4.928146
  Cl     -4.422075     -0.398221     -6.233196
  C      -2.027111     -0.293450     -4.929738
  C      -1.154657     -0.629421     -3.895610
  C       0.975056     -1.035931     -1.736495
  C       1.260531      0.363019     -1.202664
  N       2.591058     -0.144232     -0.719022
  S       4.009264      0.668000     -1.135979
  O       5.090302     -0.301430     -0.945030
  O       3.882949      1.382807     -2.412899
  C       4.105152      1.923216      0.149983
  C       3.865939      3.253938     -0.173073
  C       3.955615      4.222968      0.826014
  C       4.284684      3.878267      2.139883
  C       4.415262      4.932229      3.211952
  C       4.522157      2.527315      2.435684
  C       4.436911      1.549560      1.452271
  C       2.364025     -1.518533     -1.305361
  C      -1.625626     -2.902531      0.758977
  O      -1.041677     -4.062268      0.355743
  C      -1.106222     -5.202673      1.207426
  C      -2.360349     -2.793374      1.937602
  H      -5.047312     -0.045415      3.114070
  H      -3.574467      0.448040      4.005637
  H      -4.786379     -0.597808      4.787362
  H      -3.278742      0.483802      1.691039
  H      -2.091957      2.129721      0.606160
  H      -2.182345      2.365305     -1.158026
  H      -3.569026      1.658651     -0.293477
  H      -3.207390     -2.644964     -2.081680
  H      -4.752822     -2.073003     -3.936113
  H      -1.707090      0.365434     -5.727323
  H      -0.136409     -0.256395     -3.873523
  H       0.645127      0.725538     -0.374377
  H       1.352565      1.149998     -1.960482
  H       3.628027      3.522952     -1.194839
  H       3.772489      5.262845      0.575119
  H       3.957809      4.605582      4.149869
  H       5.469416      5.144029      3.422152
  H       3.943812      5.870101      2.910886
  H       4.782841      2.239338      3.449352
  H       4.630663      0.509367      1.684203
  H       3.051679     -1.757020     -2.123332
  H       2.444034     -2.296559     -0.540156
  H      -0.652811     -4.995328      2.181786
  H      -0.537688     -5.979236      0.698779
  H      -2.139146     -5.538960      1.345133
  H      -2.500049     -3.626109      2.611326
60
Coordinates from ORCA-job file E -2654.970320783498
  C      -4.295295     -0.367306      3.853900
  O      -3.648315     -1.565847      3.439733
  C      -2.955931     -1.573233      2.267556
  C      -2.825734     -0.458543      1.436724
  C      -2.081435     -0.579546      0.254900
  O      -1.907586      0.452357     -0.612538
  C      -2.492932      1.718722     -0.328041
  C      -1.482758     -1.794035     -0.103064
  S      -0.386357     -1.988277     -1.595455
  C      -1.586324     -1.466331     -2.879107
  C      -2.884901     -1.971339     -2.865924
  C      -3.757804     -1.663106     -3.906279
  C      -3.314973     -0.850031     -4.946986
  Cl     -4.419884     -0.448348     -6.257318
  C      -2.015414     -0.354610     -4.971534
  C      -1.143981     -0.675849     -3.931948
  C       0.966323     -1.018616     -1.732883
  C       1.251714      0.375836     -1.187854
  N       2.588578     -0.131664     -0.721627
  S       4.001767      0.691070     -1.137710
  O       5.089142     -0.274011     -0.960955
  O       3.869082      1.416141     -2.408272
  C       4.097171      1.936676      0.157250
  C       3.879852      3.272086     -0.162875
  C       3.982566      4.236829      0.839349
  C       4.304872      3.883348      2.152438
  C       4.452590      4.932269      3.227331
  C       4.519881      2.527960      2.445021
  C       4.420824      1.554356      1.458979
  C       2.360870     -1.499642     -1.320869
  C      -1.633573     -2.902205      0.754953
  O      -1.043568     -4.058910      0.351887
  C      -1.111058     -5.202692      1.198897
  C      -2.367770     -2.796459      1.934406
  H      -5.052535     -0.052280      3.128044
  H      -3.574170      0.442043      4.010032
  H      -4.779855     -0.605207      4.799362
  H      -3.284994      0.481596      1.697409
  H      -2.110009      2.133240      0.610366
  H      -2.203991      2.366459     -1.153851
  H      -3.584934      1.651009     -0.287055
  H      -3.224771     -2.597234     -2.049032
  H      -4.769237     -2.049924     -3.910342
  H      -1.685878      0.270268     -5.792285
  H      -0.117328     -0.326071     -3.928879
  H       0.644115      0.727592     -0.348962
  H       1.332850      1.171104     -1.938072
  H       3.649539      3.547007     -1.184758
  H       3.817998      5.280313      0.590529
  H       3.986770      4.612325      4.163434
  H       5.509959      5.124285      3.440155
  H       3.999056      5.879183      2.926887
  H       4.775603      2.233552      3.458108
  H       4.600983      0.511025      1.687768
  H       3.040351     -1.726443     -2.148840
  H       2.452373     -2.284859     -0.564414
  H      -0.660946     -4.999658      2.175664
  H      -0.541045     -5.977405      0.689103
  H      -2.144697     -5.538794      1.331631
  H      -2.504845     -3.630177      2.607410
60
Coordinates from ORCA-job file E -2654.970337241622
  C      -4.306405     -0.387177      3.857651
  O      -3.657320     -1.583591      3.441057
  C      -2.962366     -1.586043      2.270478
  C      -2.831656     -0.468238      1.443822
  C      -2.086610     -0.585256      0.262068
  O      -1.912500      0.449744     -0.601797
  C      -2.505241      1.712661     -0.317439
  C      -1.490239     -1.799633     -0.101281
  S      -0.388403     -1.986438     -1.591112
  C      -1.584030     -1.461041     -2.877011
  C      -2.888663     -1.949515     -2.858167
  C      -3.757303     -1.642761     -3.902534
  C      -3.304139     -0.847854     -4.952845
  Cl     -4.403034     -0.450093     -6.269279
  C      -1.999080     -0.367370     -4.981769
  C      -1.132027     -0.686856     -3.937859
  C       0.963215     -1.016413     -1.719293
  C       1.247774      0.378794     -1.176412
  N       2.585857     -0.127447     -0.711930
  S       3.997066      0.695017     -1.134221
  O       5.085043     -0.269805     -0.959313
  O       3.860852      1.415867     -2.406826
  C       4.097830      1.944820      0.156369
  C       3.898240      3.281322     -0.171078
  C       4.008960      4.249422      0.826956
  C       4.321709      3.898326      2.142972
  C       4.477463      4.950354      3.213763
  C       4.518506      2.541797      2.443018
  C       4.411072      1.564792      1.461250
  C       2.357639     -1.496456     -1.307756
  C      -1.639974     -2.909907      0.753524
  O      -1.049624     -4.064704      0.345554
  C      -1.121022     -5.214324      1.184211
  C      -2.374054     -2.808114      1.933351
  H      -5.062422     -0.070496      3.131221
  H      -3.586436      0.422381      4.018045
  H      -4.792636     -0.628743      4.801335
  H      -3.290989      0.471071      1.707461
  H      -2.122819      2.130772      0.619621
  H      -2.222194      2.361354     -1.144549
  H      -3.596649      1.637882     -0.273847
  H      -3.236571     -2.562235     -2.034533
  H      -4.773087     -2.018020     -3.902860
  H      -1.661418      0.243409     -5.809812
  H      -0.101128     -0.350038     -3.938907
  H       0.642048      0.730389     -0.336031
  H       1.326792      1.174146     -1.926937
  H       3.673134      3.553397     -1.194866
  H       3.856475      5.293433      0.572752
  H       3.995890      4.644330      4.146550
  H       5.535850      5.124248      3.436652
  H       4.044348      5.903564      2.903321
  H       4.764850      2.249117      3.458910
  H       4.574772      0.520132      1.696331
  H       3.036090     -1.725347     -2.136161
  H       2.450183     -2.279306     -0.548927
  H      -0.668590     -5.020683      2.161825
  H      -0.554968     -5.987661      0.667912
  H      -2.155953     -5.546723      1.315842
  H      -2.512109     -3.644255      2.603028
60
Coordinates from ORCA-job file E -2654.970372680552
  C      -4.282967     -0.365991      3.866753
  O      -3.632488     -1.562117      3.451803
  C      -2.946094     -1.567833      2.276280
  C      -2.828289     -0.454290      1.441894
  C      -2.090979     -0.574204      0.255636
  O      -1.927763      0.457302     -0.614717
  C      -2.548454      1.710468     -0.347199
  C      -1.491461     -1.788144     -0.105364
  S      -0.391980     -1.975359     -1.597299
  C      -1.593167     -1.467104     -2.884168
  C      -2.894383     -1.964256     -2.860602
  C      -3.764441     -1.675835     -3.908916
  C      -3.316466     -0.889935     -4.968225
  Cl     -4.416759     -0.517588     -6.290707
  C      -2.015388     -0.399060     -5.000829
  C      -1.146589     -0.700163     -3.952660
  C       0.955374     -1.001848     -1.732756
  C       1.243218      0.393989     -1.193072
  N       2.579823     -0.115899     -0.726961
  S       3.993776      0.709170     -1.133638
  O       5.079633     -0.259488     -0.965869
  O       3.864573      1.444382     -2.398701
  C       4.094285      1.945368      0.169565
  C       3.912368      3.286658     -0.149111
  C       4.030022      4.245564      0.856633
  C       4.331278      3.880720      2.171646
  C       4.494498      4.923204      3.250639
  C       4.508719      2.519675      2.462953
  C       4.394534      1.551443      1.473210
  C       2.353480     -1.480263     -1.332865
  C      -1.627536     -2.893332      0.757679
  O      -1.032188     -4.046190      0.351928
  C      -1.103838     -5.196833      1.189037
  C      -2.352934     -2.788502      1.942503
  H      -5.046844     -0.057061      3.145208
  H      -3.565032      0.447580      4.015582
  H      -4.759488     -0.603740      4.816352
  H      -3.290192      0.484291      1.703548
  H      -2.169864      2.153360      0.580062
  H      -2.286170      2.351871     -1.186774
  H      -3.637351      1.610318     -0.294552
  H      -3.238837     -2.570252     -2.030557
  H      -4.777397     -2.058681     -3.905269
  H      -1.681646      0.205131     -5.835273
  H      -0.118770     -0.354251     -3.956517
  H       0.638459      0.750404     -0.354325
  H       1.325363      1.186401     -1.946522
  H       3.695026      3.568311     -1.171958
  H       3.890830      5.293124      0.609546
  H       4.009970      4.613865      4.180760
  H       5.554083      5.087512      3.474910
  H       4.068568      5.881858      2.947051
  H       4.744642      2.216527      3.478215
  H       4.541882      0.502797      1.701371
  H       3.026559     -1.698758     -2.168779
  H       2.453829     -2.269843     -0.582215
  H      -0.644650     -5.007069      2.164316
  H      -0.544070     -5.971675      0.668122
  H      -2.139507     -5.524604      1.326140
  H      -2.480806     -3.621125      2.618557
60
Coordinates from ORCA-job file E -2654.970366741024
  C      -4.292667     -0.382000      3.867111
  O      -3.644629     -1.578288      3.448746
  C      -2.954141     -1.580828      2.275567
  C      -2.829347     -0.463795      1.446755
  C      -2.088247     -0.581047      0.262497
  O      -1.916337      0.454330     -0.601664
  C      -2.534734      1.708022     -0.331469
  C      -1.491390     -1.795265     -0.101591
  S      -0.389323     -1.979919     -1.591919
  C      -1.587465     -1.461368     -2.877599
  C      -2.890315     -1.954320     -2.858479
  C      -3.758116     -1.656762     -3.906224
  C      -3.306379     -0.865975     -4.960154
  Cl     -4.403693     -0.483122     -6.282200
  C      -2.003760     -0.378751     -4.988146
  C      -1.137229     -0.689042     -3.940812
  C       0.959624     -1.008973     -1.719818
  C       1.247855      0.387502     -1.182558
  N       2.584681     -0.121961     -0.716702
  S       3.997736      0.699751     -1.131771
  O       5.083295     -0.268022     -0.956936
  O       3.866790      1.424382     -2.402775
  C       4.098859      1.946153      0.161903
  C       3.917360      3.285203     -0.166036
  C       4.031355      4.250738      0.833804
  C       4.328384      3.894699      2.152205
  C       4.486887      4.944106      3.225202
  C       4.505811      2.535668      2.452917
  C       4.395131      1.560960      1.469133
  C       2.356595     -1.488550     -1.317358
  C      -1.634550     -2.904008      0.755834
  O      -1.042129     -4.057347      0.347187
  C      -1.121847     -5.211242      1.178993
  C      -2.363573     -2.801889      1.938613
  H      -5.052622     -0.066885      3.144106
  H      -3.572676      0.428444      4.022877
  H      -4.773820     -0.622848      4.813589
  H      -3.288654      0.475252      1.711207
  H      -2.159073      2.145709      0.599453
  H      -2.266706      2.352379     -1.166947
  H      -3.624155      1.610901     -0.284197
  H      -3.237996     -2.562929     -2.031739
  H      -4.772554     -2.035687     -3.905822
  H      -1.667415      0.230423     -5.817914
  H      -0.108638     -0.345461     -3.941039
  H       0.643307      0.745182     -0.344136
  H       1.330119      1.178900     -1.937017
  H       3.702411      3.560021     -1.191250
  H       3.892005      5.296568      0.579572
  H       3.992206      4.643735      4.152959
  H       5.545146      5.104564      3.458370
  H       4.068658      5.902726      2.911066
  H       4.738280      2.239198      3.470953
  H       4.541062      0.513823      1.704930
  H       3.030439     -1.711469     -2.151372
  H       2.454858     -2.275297     -0.563449
  H      -0.664303     -5.028051      2.156343
  H      -0.564460     -5.986536      0.656212
  H      -2.159441     -5.534579      1.311943
  H      -2.496468     -3.637123      2.610546
60
Coordinates from ORCA-job file E -2654.970365556574
  C      -4.297069     -0.386130      3.866368
  O      -3.649813     -1.582531      3.447052
  C      -2.956450     -1.583819      2.275504
  C      -2.828545     -0.465603      1.448777
  C      -2.084312     -0.581617      0.266278
  O      -1.908298      0.455292     -0.595303
  C      -2.535018      1.705910     -0.330081
  C      -1.487511     -1.795593     -0.098023
  S      -0.386031     -1.980602     -1.588748
  C      -1.584857     -1.458143     -2.872525
  C      -2.886489     -1.954468     -2.857046
  C      -3.754661     -1.652706     -3.903357
  C      -3.304618     -0.854252     -4.952118
  Cl     -4.402459     -0.466119     -6.272244
  C      -2.003141     -0.363689     -4.976696
  C      -1.136217     -0.678405     -3.931079
  C       0.963567     -1.011556     -1.714109
  C       1.254599      0.384641     -1.178307
  N       2.591619     -0.126616     -0.714992
  S       4.004657      0.693361     -1.132372
  O       5.089983     -0.273903     -0.953173
  O       3.874196      1.413720     -2.405887
  C       4.103600      1.943783      0.157657
  C       3.922182      3.281802     -0.174204
  C       4.031775      4.249910      0.823695
  C       4.323831      3.897347      2.144136
  C       4.476678      4.949442      3.215312
  C       4.501451      2.539186      2.448820
  C       4.395447      1.562037      1.466967
  C       2.361324     -1.492785     -1.316227
  C      -1.633948     -2.905741      0.757210
  O      -1.041427     -4.059059      0.348587
  C      -1.128651     -5.215196      1.176499
  C      -2.365758     -2.804762      1.938370
  H      -5.054868     -0.068441      3.142226
  H      -3.576318      0.422987      4.025475
  H      -4.780846     -0.628181      4.811199
  H      -3.287535      0.473465      1.713678
  H      -2.165676      2.147484      0.601547
  H      -2.267077      2.350279     -1.165573
  H      -3.624045      1.602721     -0.287070
  H      -3.232994     -2.568428     -2.033814
  H      -4.768293     -2.033792     -3.905458
  H      -1.668196      0.251980     -5.802227
  H      -0.108597     -0.331870     -3.928882
  H       0.651613      0.743927     -0.339479
  H       1.337045      1.175197     -1.933622
  H       3.710870      3.553853     -1.200918
  H       3.892851      5.295048      0.566398
  H       3.974640      4.652564      4.140279
  H       5.533522      5.108271      3.455910
  H       4.062733      5.908065      2.895622
  H       4.730590      2.245391      3.468393
  H       4.541625      0.515649      1.705885
  H       3.032955     -1.714953     -2.152185
  H       2.461073     -2.280684     -0.563764
  H      -0.672967     -5.037150      2.155693
  H      -0.573184     -5.991309      0.652890
  H      -2.167993     -5.534418      1.305622
  H      -2.500566     -3.640791      2.608932
60
Coordinates from ORCA-job file E -2654.970368782463
  C      -4.298618     -0.384511      3.864675
  O      -3.650529     -1.580744      3.446203
  C      -2.955902     -1.582075      2.275363
  C      -2.827569     -0.464122      1.448429
  C      -2.081847     -0.580108      0.266787
  O      -1.904071      0.457102     -0.594130
  C      -2.538623      1.704921     -0.334338
  C      -1.484077     -1.793787     -0.096376
  S      -0.384216     -1.980285     -1.588035
  C      -1.584507     -1.456662     -2.870392
  C      -2.885319     -1.955160     -2.855534
  C      -3.754640     -1.651874     -3.900489
  C      -3.306461     -0.849806     -4.947284
  Cl     -4.405890     -0.459049     -6.265323
  C      -2.005589     -0.357574     -4.971567
  C      -1.137602     -0.673917     -3.927399
  C       0.965478     -1.012358     -1.712877
  C       1.258663      0.383141     -1.177046
  N       2.596243     -0.129550     -0.717182
  S       4.008997      0.690681     -1.134660
  O       5.094809     -0.275917     -0.954869
  O       3.878471      1.410769     -2.408358
  C       4.105711      1.941113      0.155578
  C       3.924224      3.279083     -0.176262
  C       4.030734      4.247002      0.822235
  C       4.319635      3.894218      2.143287
  C       4.468309      4.945973      3.215378
  C       4.497792      2.536077      2.447882
  C       4.394988      1.559205      1.465463
  C       2.364443     -1.494494     -1.320772
  C      -1.630193     -2.903558      0.759514
  O      -1.035419     -4.056383      0.352755
  C      -1.125608     -5.213000      1.179687
  C      -2.363672     -2.802656      1.939660
  H      -5.055909     -0.067273      3.139800
  H      -3.578313      0.424914      4.024227
  H      -4.783166     -0.626537      4.809117
  H      -3.286884      0.474940      1.712812
  H      -2.174000      2.151534      0.596752
  H      -2.272311      2.348260     -1.171140
  H      -3.627118      1.595583     -0.293529
  H      -3.230170     -2.572165     -2.033866
  H      -4.767633     -2.034660     -3.903123
  H      -1.671988      0.260613     -5.795757
  H      -0.110295     -0.326343     -3.925284
  H       0.657463      0.742499     -0.336947
  H       1.340303      1.174003     -1.932158
  H       3.715317      3.551268     -1.203442
  H       3.892027      5.292166      0.564931
  H       3.961581      4.649286      4.137872
  H       5.524096      5.103807      3.461201
  H       4.056712      5.905021      2.893972
  H       4.724961      2.242115      3.467856
  H       4.542130      0.512950      1.704366
  H       3.033595     -1.714263     -2.159367
  H       2.466660     -2.284390     -0.570749
  H      -0.671456     -5.036247      2.159834
  H      -0.570122     -5.989450      0.656594
  H      -2.165558     -5.531044      1.306732
  H      -2.498067     -3.638282      2.610793
