23
Coordinates from ORCA-job file E -894.146982977953
  O      -3.589500      0.687200     -0.219800
  S      -2.299600      0.072800     -0.685500
  O      -2.456300     -0.516500     -2.059000
  C      -0.967400      1.235300     -0.627700
  C      -0.127700      0.796600      0.581400
  N       1.267700      1.273800      0.537500
  C       2.116000      0.510600     -0.384600
  C       2.030700     -0.984700     -0.078600
  N       0.649600     -1.455500     -0.205400
  C      -0.234000     -0.744000      0.736000
  C      -1.697000     -1.126300      0.472800
  H      -1.352300      2.268400     -0.492600
  H      -0.394800      1.174600     -1.575000
  H      -0.601000      1.244400      1.484500
  H       1.278700      2.279600      0.246700
  H       1.830200      0.704200     -1.441000
  H       3.169700      0.839900     -0.258600
  H       2.409900     -1.187100      0.947600
  H       2.674000     -1.542400     -0.792900
  H       0.333000     -1.289600     -1.190400
  H       0.036400     -1.037600      1.775300
  H      -2.283500     -1.047300      1.413200
  H      -1.792900     -2.156200      0.067100
23
Coordinates from ORCA-job file E -894.160486754084
  O      -3.563315      0.681695     -0.197320
  S      -2.332205      0.069701     -0.706134
  O      -2.408025     -0.534151     -2.041772
  C      -0.974021      1.234658     -0.630651
  C      -0.122925      0.805487      0.584393
  N       1.267314      1.264898      0.547287
  C       2.121900      0.516424     -0.383726
  C       2.018118     -0.978160     -0.092420
  N       0.640428     -1.456347     -0.210935
  C      -0.224205     -0.735842      0.723482
  C      -1.688557     -1.115477      0.477006
  H      -1.374879      2.245454     -0.512393
  H      -0.415947      1.164395     -1.570158
  H      -0.582749      1.242667      1.482985
  H       1.282826      2.248780      0.291842
  H       1.853358      0.702642     -1.440813
  H       3.158872      0.849662     -0.245802
  H       2.376100     -1.181760      0.926273
  H       2.652610     -1.538786     -0.790454
  H       0.318550     -1.311109     -1.168581
  H       0.060894     -1.020784      1.744484
  H      -2.280001     -1.027094      1.394114
  H      -1.784241     -2.126754      0.070296
23
Coordinates from ORCA-job file E -894.163262812765
  O      -3.546358      0.689469     -0.204356
  S      -2.330906      0.058252     -0.725231
  O      -2.342287     -0.578465     -2.046520
  C      -0.958343      1.223914     -0.638486
  C      -0.126378      0.810511      0.594694
  N       1.266159      1.247483      0.574734
  C       2.113058      0.529996     -0.384918
  C       2.008072     -0.970607     -0.125206
  N       0.629490     -1.452814     -0.215302
  C      -0.224048     -0.731379      0.723421
  C      -1.688961     -1.104608      0.501093
  H      -1.377907      2.227644     -0.553056
  H      -0.398269      1.132754     -1.571597
  H      -0.592438      1.246628      1.486672
  H       1.303048      2.243153      0.386302
  H       1.841977      0.730468     -1.437899
  H       3.144917      0.868007     -0.242516
  H       2.372681     -1.187232      0.886428
  H       2.628081     -1.529500     -0.832931
  H       0.285123     -1.339481     -1.166496
  H       0.082692     -1.013791      1.736683
  H      -2.291918     -0.985024      1.403119
  H      -1.797586     -2.115177      0.102368
23
Coordinates from ORCA-job file E -894.164150724992
  O      -3.537039      0.683878     -0.250869
  S      -2.312626      0.042918     -0.742257
  O      -2.281371     -0.621304     -2.051573
  C      -0.941107      1.214834     -0.647188
  C      -0.129423      0.812653      0.603817
  N       1.266285      1.230229      0.604779
  C       2.098788      0.543911     -0.387152
  C       1.997863     -0.963360     -0.157732
  N       0.618066     -1.447605     -0.215732
  C      -0.226886     -0.729278      0.732591
  C      -1.693887     -1.095672      0.524388
  H      -1.367587      2.217699     -0.584940
  H      -0.369889      1.109104     -1.571600
  H      -0.608539      1.254560      1.485961
  H       1.329673      2.235531      0.490112
  H       1.811518      0.767563     -1.430985
  H       3.131698      0.881669     -0.251292
  H       2.389950     -1.198638      0.839818
  H       2.597218     -1.510881     -0.891875
  H       0.251206     -1.366322     -1.161353
  H       0.094235     -1.011974      1.741886
  H      -2.299100     -0.934082      1.418709
  H      -1.819146     -2.115234      0.153489
23
Coordinates from ORCA-job file E -894.164624815501
  O      -3.543311      0.656496     -0.326298
  S      -2.292525      0.023796     -0.759922
  O      -2.204834     -0.666645     -2.053882
  C      -0.935644      1.213931     -0.645002
  C      -0.130208      0.815993      0.613232
  N       1.268400      1.217739      0.622980
  C       2.090578      0.552538     -0.389737
  C       1.987289     -0.959854     -0.187451
  N       0.605789     -1.441329     -0.215428
  C      -0.229623     -0.725815      0.742547
  C      -1.698991     -1.083934      0.545448
  H      -1.371778      2.213212     -0.590212
  H      -0.354849      1.110597     -1.563516
  H      -0.613496      1.262410      1.490845
  H       1.357208      2.226072      0.570556
  H       1.793882      0.798478     -1.425433
  H       3.126123      0.884228     -0.257540
  H       2.409540     -1.215871      0.792843
  H       2.562107     -1.494408     -0.950468
  H       0.218057     -1.387251     -1.154454
  H       0.100945     -1.008866      1.749093
  H      -2.301875     -0.877910      1.432702
  H      -1.842884     -2.113407      0.210095
23
Coordinates from ORCA-job file E -894.164900408222
  O      -3.556999      0.611958     -0.415285
  S      -2.272140      0.003717     -0.776774
  O      -2.114883     -0.711216     -2.051200
  C      -0.940502      1.221661     -0.632555
  C      -0.128664      0.819909      0.622830
  N       1.272168      1.210765      0.628425
  C       2.087361      0.554302     -0.394136
  C       1.976696     -0.960876     -0.210822
  N       0.593033     -1.435598     -0.216793
  C      -0.231837     -0.721847      0.750684
  C      -1.704159     -1.069891      0.563832
  H      -1.392965      2.213081     -0.566672
  H      -0.353871      1.141126     -1.549721
  H      -0.606219      1.267813      1.502791
  H       1.379789      2.218158      0.613704
  H       1.789104      0.816786     -1.425028
  H       3.125840      0.876926     -0.261327
  H       2.421445     -1.234583      0.754795
  H       2.530201     -1.485788     -0.996165
  H       0.189704     -1.397475     -1.149885
  H       0.105030     -1.007093      1.754647
  H      -2.303000     -0.824604      1.444147
  H      -1.865232     -2.107033      0.261507
23
Coordinates from ORCA-job file E -894.165072849400
  O      -3.564274      0.564843     -0.508087
  S      -2.248429     -0.014328     -0.792559
  O      -2.015747     -0.752358     -2.042279
  C      -0.947797      1.233610     -0.614559
  C      -0.125117      0.822368      0.633117
  N       1.276852      1.206621      0.628464
  C       2.082675      0.551730     -0.401693
  C       1.965585     -0.964535     -0.228177
  N       0.580192     -1.432650     -0.218295
  C      -0.233453     -0.719238      0.758333
  C      -1.709237     -1.055631      0.579148
  H      -1.421962      2.212921     -0.524747
  H      -0.357973      1.190004     -1.532327
  H      -0.592390      1.269472      1.518902
  H       1.395008      2.212722      0.629009
  H       1.780853      0.824117     -1.429040
  H       3.123816      0.866752     -0.271682
  H       2.425767     -1.249698      0.726831
  H       2.503173     -1.483678     -1.028343
  H       0.165465     -1.398783     -1.146573
  H       0.106964     -1.008455      1.759860
  H      -2.304938     -0.777839      1.452016
  H      -1.885133     -2.097767      0.303680
23
Coordinates from ORCA-job file E -894.165181847321
  O      -3.563331      0.524253     -0.596771
  S      -2.223012     -0.026399     -0.810263
  O      -1.917718     -0.774484     -2.039348
  C      -0.957125      1.249090     -0.590206
  C      -0.119668      0.822481      0.644380
  N       1.282702      1.203870      0.623362
  C       2.074412      0.544792     -0.414860
  C       1.958000     -0.970741     -0.235951
  N       0.572460     -1.436412     -0.213434
  C      -0.233916     -0.719280      0.766162
  C      -1.713311     -1.043715      0.587413
  H      -1.458095      2.210905     -0.464967
  H      -0.368740      1.254712     -1.509925
  H      -0.572687      1.266435      1.539020
  H       1.402168      2.209737      0.618007
  H       1.759477      0.814806     -1.439120
  H       3.117234      0.859048     -0.298547
  H       2.429012     -1.255313      0.713842
  H       2.485814     -1.490647     -1.042084
  H       0.151418     -1.401533     -1.138680
  H       0.104567     -1.012289      1.767251
  H      -2.308348     -0.739965      1.452244
  H      -1.901414     -2.089152      0.333476
23
Coordinates from ORCA-job file E -894.165284202460
  O      -3.565288      0.515020     -0.620922
  S      -2.217583     -0.022828     -0.818527
  O      -1.891753     -0.758702     -2.050823
  C      -0.966516      1.261156     -0.573867
  C      -0.115149      0.820575      0.646801
  N       1.286757      1.204521      0.612420
  C       2.071205      0.535280     -0.425310
  C       1.962714     -0.977312     -0.225075
  N       0.578245     -1.445684     -0.203607
  C      -0.232241     -0.721625      0.767567
  C      -1.712808     -1.042849      0.580199
  H      -1.482956      2.210077     -0.416798
  H      -0.385708      1.303708     -1.497481
  H      -0.556416      1.260767      1.549178
  H       1.396651      2.211209      0.580974
  H       1.743365      0.788498     -1.450005
  H       3.113301      0.856952     -0.324244
  H       2.431405     -1.246807      0.730182
  H       2.495063     -1.506312     -1.022224
  H       0.162375     -1.406113     -1.130938
  H       0.097540     -1.014130      1.771807
  H      -2.309932     -0.736609      1.442923
  H      -1.902371     -2.088590      0.328770
23
Coordinates from ORCA-job file E -894.165309041713
  O      -3.564863      0.513247     -0.618997
  S      -2.216036     -0.021685     -0.821244
  O      -1.887840     -0.749440     -2.056955
  C      -0.968148      1.264863     -0.570099
  C      -0.113868      0.820392      0.646858
  N       1.288664      1.203460      0.610979
  C       2.069554      0.532074     -0.428693
  C       1.964391     -0.979257     -0.220615
  N       0.579959     -1.448655     -0.202031
  C      -0.231746     -0.722083      0.766321
  C      -1.711335     -1.043388      0.577626
  H      -1.489068      2.209982     -0.404851
  H      -0.389745      1.317353     -1.494724
  H      -0.552679      1.259087      1.551202
  H       1.394866      2.210479      0.570689
  H       1.734108      0.778370     -1.452571
  H       3.111281      0.857678     -0.335532
  H       2.428065     -1.240827      0.739333
  H       2.501809     -1.513545     -1.010802
  H       0.166814     -1.407294     -1.130780
  H       0.096100     -1.014068      1.771402
  H      -2.310719     -0.737275      1.438799
  H      -1.899664     -2.089268      0.325686
23
Coordinates from ORCA-job file E -894.165310918273
  O      -3.565098      0.512957     -0.618066
  S      -2.216284     -0.021282     -0.821129
  O      -1.886956     -0.748506     -2.057092
  C      -0.968135      1.265362     -0.569804
  C      -0.113783      0.820659      0.646933
  N       1.288981      1.203213      0.610909
  C       2.069332      0.531792     -0.429205
  C       1.964489     -0.979378     -0.220207
  N       0.580048     -1.448662     -0.202053
  C      -0.231705     -0.721998      0.766208
  C      -1.711050     -1.043682      0.577170
  H      -1.489410      2.210231     -0.404204
  H      -0.389981      1.318161     -1.494522
  H      -0.552529      1.259160      1.551393
  H       1.395353      2.210162      0.570673
  H       1.732550      0.777171     -1.452846
  H       3.110998      0.857964     -0.337530
  H       2.427070     -1.239781      0.740590
  H       2.502783     -1.514656     -1.009117
  H       0.167110     -1.407668     -1.130825
  H       0.096375     -1.013840      1.771236
  H      -2.311152     -0.737773      1.437931
  H      -1.899106     -2.089406      0.324555
