23
Coordinates from ORCA-job file
  O   -3.56509775437844      0.51295686766038     -0.61806622286334
  S   -2.21628406393938     -0.02128201786257     -0.82112930549034
  O   -1.88695584016310     -0.74850639336643     -2.05709168590148
  C   -0.96813450483402      1.26536208919232     -0.56980437350868
  C   -0.11378306404251      0.82065890277627      0.64693324200046
  N   1.28898116856279      1.20321298606096      0.61090938283654
  C   2.06933196211251      0.53179188898670     -0.42920461478580
  C   1.96448871333713     -0.97937775718144     -0.22020714641484
  N   0.58004787846644     -1.44866204982703     -0.20205347556282
  C   -0.23170523052386     -0.72199797958709      0.76620764989640
  C   -1.71105029013897     -1.04368173478568      0.57717005261585
  H   -1.48940984822623      2.21023064863088     -0.40420401324093
  H   -0.38998070861593      1.31816116192048     -1.49452199549480
  H   -0.55252946439557      1.25916004687280      1.55139293699815
  H   1.39535322858282      2.21016176878104      0.57067336803135
  H   1.73255025074712      0.77717113287173     -1.45284567875613
  H   3.11099753077598      0.85796366978178     -0.33753006651197
  H   2.42707037278135     -1.23978052184966      0.74059036270050
  H   2.50278288882437     -1.51465645032276     -1.00911650467811
  H   0.16711006538906     -1.40766798407320     -1.13082465734408
  H   0.09637526493547     -1.01383969008065      1.77123619459324
  H   -2.31115241925292     -0.73777307411728      1.43793142312026
  H   -1.89910613600410     -2.08940551048156      0.32455512776057
