10
Coordinates from ORCA-job file
  C   0.04020341399880      1.19525324895910      0.08753235241717
  C   -1.10865451774130      0.36823933399348      0.28416555412673
  C   -0.70795485520980     -0.93820295277150      0.11160941458448
  N   0.63552691216232     -0.92997432998534     -0.18103164387578
  C   1.10043527319458      0.36384893402873     -0.19808580372530
  H   0.08121217640513      2.27509537932445      0.14901738368834
  H   -2.11175093269813      0.69626322662919      0.52448283223133
  H   -1.26162291530955     -1.86523428132911      0.17223334802531
  H   1.19462860895170     -1.74810867103979     -0.35636847318640
  H   2.13797683624626      0.58292011219081     -0.41045496428587
