10
Coordinates from ORCA-job file E -210.269281964891
  C       0.023500      1.177100      0.089900
  C      -1.086200      0.378000      0.280000
  C      -0.665800     -0.924300      0.103400
  N       0.647600     -0.947700     -0.184800
  C       1.073300      0.328000     -0.194600
  H       0.062300      2.256400      0.151800
  H      -2.088000      0.708000      0.520200
  H      -1.287400     -1.806600      0.181500
  H       1.227600     -1.796400     -0.366700
  H       2.093100      0.627600     -0.397600
10
Coordinates from ORCA-job file E -210.276550284983
  C       0.038383      1.191383      0.087623
  C      -1.104498      0.368657      0.283335
  C      -0.702691     -0.937908      0.110484
  N       0.636529     -0.931473     -0.181357
  C       1.098316      0.358856     -0.197985
  H       0.080722      2.271078      0.148756
  H      -2.107860      0.695423      0.523704
  H      -1.265624     -1.858364      0.173455
  H       1.193705     -1.746693     -0.356053
  H       2.133019      0.589140     -0.408862
10
Coordinates from ORCA-job file E -210.276656535541
  C       0.039756      1.195042      0.087624
  C      -1.108310      0.368605      0.284109
  C      -0.707758     -0.937994      0.111567
  N       0.635337     -0.929709     -0.180989
  C       1.100175      0.363716     -0.198032
  H       0.081092      2.274881      0.149023
  H      -2.111511      0.696309      0.524442
  H      -1.261463     -1.864918      0.172224
  H       1.195053     -1.748709     -0.356490
  H       2.137627      0.582878     -0.410380
10
Coordinates from ORCA-job file E -210.276658464596
  C       0.040179      1.195261      0.087536
  C      -1.108652      0.368265      0.284170
  C      -0.707986     -0.938196      0.111620
  N       0.635534     -0.929985     -0.181037
  C       1.100439      0.363883     -0.198091
  H       0.081174      2.275108      0.149030
  H      -2.111750      0.696304      0.524484
  H      -1.261535     -1.865328      0.172205
  H       1.194564     -1.748011     -0.356343
  H       2.138034      0.582800     -0.410475
10
Coordinates from ORCA-job file E -210.276658495038
  C       0.040203      1.195253      0.087532
  C      -1.108655      0.368239      0.284166
  C      -0.707955     -0.938203      0.111609
  N       0.635527     -0.929974     -0.181032
  C       1.100435      0.363849     -0.198086
  H       0.081212      2.275095      0.149017
  H      -2.111751      0.696263      0.524483
  H      -1.261623     -1.865234      0.172233
  H       1.194629     -1.748109     -0.356368
  H       2.137977      0.582920     -0.410455
