19
Coordinates from ORCA-job file
  F   2.70834606789689     -0.17477395294749      0.82342467092955
  C   1.60703796198899     -0.17242432437343     -0.01865942211969
  F   2.07440408703035     -0.57848780391473     -1.25168249891445
  C   0.62781291555078     -1.22607904849467      0.49022086559911
  N   -0.51324602682896     -1.33229925415470     -0.39970206370036
  C   -1.67971021747003     -0.53393193586847     -0.05049033452361
  C   -1.31776410790121      0.95863692524853      0.12890853025572
  N   -0.22038789498208      1.45601373886637     -0.69369563334729
  C   1.10236779703075      1.26689254209339     -0.12583264861373
  H   1.17797989113123     -2.17187100389395      0.51014307965532
  H   0.35493338153636     -0.97803005775572      1.52867840014540
  H   -0.76126629479247     -2.29489057249859     -0.57980071983740
  H   -2.39986471198699     -0.64265206264374     -0.87028657188556
  H   -2.17988535949301     -0.87734533052571      0.87378538253330
  H   -2.21730489799790      1.55486806873285     -0.06878089458501
  H   -1.04795110237820      1.15331743294110      1.17388106967142
  H   -0.26546105388967      1.08260058558671     -1.63584452946588
  H   1.11129242483269      1.69079043649278      0.88493804459384
  H   1.83876714072251      1.81956561710948     -0.71920472639067
