19
Coordinates from ORCA-job file E -505.914379655677
  F       2.801400     -0.237300      0.664200
  C       1.638900     -0.178400     -0.085400
  F       1.951900     -0.520800     -1.391200
  C       0.638700     -1.191400      0.483600
  N      -0.493200     -1.347500     -0.440100
  C      -1.651400     -0.521300     -0.071200
  C      -1.316700      0.974000      0.116000
  N      -0.191000      1.430500     -0.715900
  C       1.110300      1.266400     -0.045900
  H       1.164100     -2.167800      0.583700
  H       0.311000     -0.897600      1.506900
  H      -0.804400     -2.347100     -0.414700
  H      -2.407600     -0.611400     -0.881100
  H      -2.121100     -0.913100      0.859000
  H      -2.214100      1.570200     -0.155300
  H      -1.133400      1.184100      1.193300
  H      -0.194800      0.962500     -1.652600
  H       1.063000      1.626700      1.005900
  H       1.848500      1.919200     -0.559200
19
Coordinates from ORCA-job file E -505.921552265747
  F       2.779180     -0.235212      0.676363
  C       1.615663     -0.168370     -0.070250
  F       1.958603     -0.511784     -1.356998
  C       0.637134     -1.204898      0.476201
  N      -0.509231     -1.353447     -0.415733
  C      -1.670972     -0.533195     -0.060958
  C      -1.315621      0.965408      0.099200
  N      -0.187173      1.441483     -0.697540
  C       1.108709      1.268099     -0.061136
  H       1.178962     -2.153269      0.547371
  H       0.349327     -0.912350      1.499046
  H      -0.793293     -2.322742     -0.427039
  H      -2.406469     -0.646745     -0.866435
  H      -2.153241     -0.880236      0.870700
  H      -2.203839      1.553370     -0.164948
  H      -1.106263      1.189498      1.150993
  H      -0.187032      1.003057     -1.611266
  H       1.050821      1.608365      0.978221
  H       1.854834      1.892869     -0.565790
19
Coordinates from ORCA-job file E -505.922655868826
  F       2.754802     -0.213398      0.725019
  C       1.608019     -0.170397     -0.052013
  F       1.997908     -0.534295     -1.321427
  C       0.637822     -1.220023      0.479251
  N      -0.513800     -1.347922     -0.400510
  C      -1.674148     -0.532745     -0.051273
  C      -1.320157      0.966582      0.098637
  N      -0.198147      1.455532     -0.697696
  C       1.103636      1.267322     -0.081754
  H       1.188070     -2.164719      0.513771
  H       0.372569     -0.951240      1.514733
  H      -0.789047     -2.318602     -0.469286
  H      -2.403293     -0.657187     -0.860262
  H      -2.163218     -0.862683      0.883071
  H      -2.214202      1.551404     -0.148827
  H      -1.090621      1.192423      1.146098
  H      -0.207714      1.048139     -1.627286
  H       1.055982      1.623327      0.953273
  H       1.855639      1.868381     -0.603518
19
Coordinates from ORCA-job file E -505.923069703459
  F       2.729147     -0.190450      0.780938
  C       1.606893     -0.173097     -0.033719
  F       2.044282     -0.559824     -1.282464
  C       0.635778     -1.229138      0.483689
  N      -0.515481     -1.339568     -0.395117
  C      -1.677159     -0.532451     -0.044153
  C      -1.322527      0.966207      0.106558
  N      -0.209469      1.459558     -0.698437
  C       1.100728      1.265277     -0.104002
  H       1.188450     -2.173570      0.493505
  H       0.376916     -0.982120      1.526400
  H      -0.779071     -2.306211     -0.526455
  H      -2.405744     -0.658691     -0.853885
  H      -2.166592     -0.860566      0.891384
  H      -2.220391      1.553178     -0.123036
  H      -1.076464      1.185256      1.152564
  H      -0.235527      1.081426     -1.639462
  H       1.076328      1.651572      0.921609
  H       1.850004      1.843112     -0.655915
19
Coordinates from ORCA-job file E -505.923134980249
  F       2.713935     -0.180053      0.812492
  C       1.607410     -0.173440     -0.023200
  F       2.068480     -0.571467     -1.260957
  C       0.631722     -1.229734      0.486350
  N      -0.514954     -1.334245     -0.397055
  C      -1.678858     -0.533254     -0.044143
  C      -1.321305      0.963279      0.117423
  N      -0.215854      1.457186     -0.696022
  C       1.101341      1.265206     -0.117433
  H       1.183255     -2.174880      0.495462
  H       0.367421     -0.987306      1.528531
  H      -0.769386     -2.297935     -0.563564
  H      -2.406181     -0.653493     -0.855891
  H      -2.169566     -0.868041      0.888422
  H      -2.220026      1.554474     -0.097952
  H      -1.063891      1.172529      1.162749
  H      -0.253663      1.088740     -1.640549
  H       1.096733      1.674539      0.899492
  H       1.843487      1.827795     -0.694155
19
Coordinates from ORCA-job file E -505.923139555721
  F       2.709273     -0.176370      0.821847
  C       1.607351     -0.172958     -0.019499
  F       2.074201     -0.576271     -1.253631
  C       0.629122     -1.227865      0.488600
  N      -0.513928     -1.332570     -0.398955
  C      -1.679399     -0.533779     -0.047434
  C      -1.319301      0.960491      0.124897
  N      -0.218914      1.456076     -0.694413
  C       1.102093      1.266126     -0.123292
  H       1.179635     -2.173567      0.503952
  H       0.359121     -0.982698      1.528564
  H      -0.763681     -2.295099     -0.577017
  H      -2.403154     -0.647206     -0.863382
  H      -2.174820     -0.874211      0.880538
  H      -2.218502      1.554769     -0.079997
  H      -1.054379      1.161204      1.170019
  H      -0.261946      1.086148     -1.637993
  H       1.107153      1.686107      0.889207
  H       1.840175      1.821574     -0.712010
19
Coordinates from ORCA-job file E -505.923139221441
  F       2.708346     -0.174774      0.823425
  C       1.607038     -0.172424     -0.018659
  F       2.074404     -0.578488     -1.251682
  C       0.627813     -1.226079      0.490221
  N      -0.513246     -1.332299     -0.399702
  C      -1.679710     -0.533932     -0.050490
  C      -1.317764      0.958637      0.128909
  N      -0.220388      1.456014     -0.693696
  C       1.102368      1.266893     -0.125833
  H       1.177980     -2.171871      0.510143
  H       0.354933     -0.978030      1.528678
  H      -0.761266     -2.294891     -0.579801
  H      -2.399865     -0.642652     -0.870287
  H      -2.179885     -0.877345      0.873785
  H      -2.217305      1.554868     -0.068781
  H      -1.047951      1.153317      1.173881
  H      -0.265461      1.082601     -1.635845
  H       1.111292      1.690790      0.884938
  H       1.838767      1.819566     -0.719205
