10
Coordinates from ORCA-job file
  C   -0.00803281740013     -1.26898657605546     -0.64600033302891
  C   1.04352129022161     -0.25897705666336     -0.22714385764150
  C   0.00465748241200      0.72294596751740      0.36928441534791
  C   -1.04728663754500     -0.32519407518371     -0.07099048902382
  H   1.63990863846049      0.08511002942472     -1.09510069161370
  H   1.78399951020770     -0.71000935268571      0.46255512295135
  H   0.08031669687000      0.89414802864631      1.45486189955475
  H   -0.06345902478355      1.70356911231482     -0.12793823516762
  H   -1.78708094074589     -0.02371779409483     -0.83863363595184
  H   -1.64664419769723     -0.81898828322018      0.71920580457338
