10
Coordinates from ORCA-job file E -155.641172798107
  C      -0.008100     -1.252300     -0.639200
  C       1.066900     -0.261200     -0.230600
  C       0.004300      0.662900      0.338300
  C      -1.070700     -0.329100     -0.070600
  H       1.589200      0.171500     -1.110800
  H       1.740300     -0.676800      0.549500
  H       0.083200      0.777500      1.441700
  H      -0.067800      1.624400     -0.215800
  H      -1.744300      0.065700     -0.861400
  H      -1.593100     -0.782700      0.799000
10
Coordinates from ORCA-job file E -155.649143080906
  C      -0.008217     -1.273914     -0.650122
  C       1.053690     -0.261086     -0.229331
  C       0.004562      0.708745      0.361734
  C      -1.057508     -0.328126     -0.071346
  H       1.598961      0.125447     -1.108781
  H       1.746364     -0.701540      0.509790
  H       0.081896      0.845756      1.452888
  H      -0.065690      1.673468     -0.167083
  H      -1.750735      0.019106     -0.858110
  H      -1.603423     -0.807957      0.760462
10
Coordinates from ORCA-job file E -155.651101707316
  C      -0.008183     -1.274377     -0.650033
  C       1.047656     -0.258788     -0.227591
  C       0.004690      0.729458      0.372389
  C      -1.051441     -0.325388     -0.070583
  H       1.618086      0.094441     -1.106533
  H       1.763011     -0.716452      0.480575
  H       0.080927      0.886846      1.457468
  H      -0.064211      1.701250     -0.136328
  H      -1.767466     -0.013112     -0.853213
  H      -1.623170     -0.823979      0.733949
10
Coordinates from ORCA-job file E -155.651519729871
  C      -0.008119     -1.270133     -0.647520
  C       1.045405     -0.257869     -0.226885
  C       0.004699      0.730860      0.373172
  C      -1.049165     -0.324283     -0.070286
  H       1.631190      0.083494     -1.101948
  H       1.774914     -0.718045      0.467010
  H       0.080545      0.898560      1.457988
  H      -0.063674      1.708551     -0.126933
  H      -1.779156     -0.024890     -0.846780
  H      -1.636738     -0.826344      0.722282
10
Coordinates from ORCA-job file E -155.651637691003
  C      -0.008068     -1.267570     -0.645846
  C       1.044057     -0.257993     -0.226777
  C       0.004673      0.726518      0.371016
  C      -1.047811     -0.324288     -0.070450
  H       1.638653      0.082005     -1.097385
  H       1.782009     -0.714393      0.461882
  H       0.080353      0.898484      1.456243
  H      -0.063471      1.707134     -0.125711
  H      -1.785856     -0.026819     -0.841136
  H      -1.644638     -0.823178      0.718265
10
Coordinates from ORCA-job file E -155.651652572346
  C      -0.008048     -1.268065     -0.645815
  C       1.043620     -0.258561     -0.226984
  C       0.004659      0.723733      0.369637
  C      -1.047380     -0.324808     -0.070771
  H       1.639957      0.083998     -1.095587
  H       1.783602     -0.711373      0.462099
  H       0.080322      0.895563      1.455138
  H      -0.063463      1.704575     -0.127199
  H      -1.787069     -0.024867     -0.839130
  H      -1.646299     -0.820295      0.718710
10
Coordinates from ORCA-job file E -155.651654536917
  C      -0.008033     -1.268987     -0.646000
  C       1.043521     -0.258977     -0.227144
  C       0.004657      0.722946      0.369284
  C      -1.047287     -0.325194     -0.070990
  H       1.639909      0.085110     -1.095101
  H       1.784000     -0.710009      0.462555
  H       0.080317      0.894148      1.454862
  H      -0.063459      1.703569     -0.127938
  H      -1.787081     -0.023718     -0.838634
  H      -1.646644     -0.818988      0.719206
