44
Coordinates from ORCA-job file
  C   5.47118633432509     -0.03657254355476     -0.16833421523881
  O   4.42119292511366     -0.40439846363095      0.70876684311870
  C   3.15592797404900     -0.29872252459769      0.29993717142959
  C   2.80057265475129      0.16255965752240     -0.97559537433461
  C   1.44718153099379      0.24553619751839     -1.31376303432030
  O   1.00366401398183      0.67592772084764     -2.49648868909817
  C   1.93587873387701      1.05221767487335     -3.49772205941620
  C   0.46590914735776     -0.13976129562189     -0.37484757039758
  S   -1.20784024635750      0.03480211322430     -0.85985864464075
  C   -2.03170960508063      1.01558867562921      0.38978922388675
  C   -2.78260494560911      0.45387463179451      1.42174004026002
  C   -3.44977357717056      1.29763909359568      2.30530444296080
  C   -3.34065901012069      2.67972780218777      2.14892979985114
  Cl  -4.17562588417064      3.72294486814762      3.25189893352995
  C   -2.58187366303992      3.23967950941144      1.12088746066714
  C   -1.93062030151580      2.39740986477879      0.22453653771815
  C   -1.94463363072333     -1.61665918168664     -0.70105326691123
  C   -3.38150992335190     -1.64337700338697     -1.24930335664507
  O   -2.94382859068209     -2.23255100873591     -2.47165534469572
  C   -1.63420733435858     -2.45867149987716     -1.95003095813899
  C   0.84350094506367     -0.60996657146958      0.90663382795357
  O   -0.15691983450943     -0.95549590285823      1.72105652047655
  C   0.13637733463328     -1.35264535258795      3.05241797170196
  C   2.18665471012640     -0.68614258996103      1.24312767415883
  H   5.40179120984853      1.02777500844405     -0.43780782734418
  H   6.40234261638467     -0.21555300123794      0.37760088240024
  H   5.45623509085102     -0.65221111650053     -1.07998736894554
  H   3.55932119478569      0.45541757715825     -1.69504126331181
  H   2.58438828165989      0.20434290826619     -3.76145549618739
  H   1.34197424943141      1.34579874830988     -4.36848464914167
  H   2.54793390194926      1.90253888218025     -3.16392151471644
  H   -2.85850800101474     -0.62562609715333      1.55278943695467
  H   -4.05068070883317      0.88536559811323      3.11593951642622
  H   -2.51478889511382      4.32239804098212      1.01540746793553
  H   -1.35185523176081      2.81954287012560     -0.60009555759057
  H   -1.72410578014529     -2.02648322263621      0.28888733875399
  H   -4.03192428010690     -2.30903940900958     -0.66096484489981
  H   -3.88204972956192     -0.67344507620621     -1.39398479867873
  H   -1.45191681511677     -3.51503474306124     -1.70231832172387
  H   -0.83723163963388     -2.08980147307253     -2.61362018236417
  H   -0.83000660333413     -1.53561446926907      3.53253322942330
  H   0.73888548425751     -2.27205909475903      3.06057405009507
  H   0.66945986242774     -0.55106589958705      3.58313996830765
  H   2.52469603544310     -1.04038990264918      2.21443600073182
