44
Coordinates from ORCA-job file E -1855.491991274487
  C       5.654400     -0.071900     -0.187600
  O       4.597800     -0.558900      0.633400
  C       3.233500     -0.441200      0.326400
  C       2.776200      0.181900     -0.847600
  C       1.398100      0.280000     -1.115000
  O       0.910200      0.897400     -2.279100
  C       1.725900      1.477100     -3.291800
  C       0.477200     -0.250100     -0.195900
  S      -1.246400     -0.120900     -0.536300
  C      -2.073600      1.115000      0.393400
  C      -2.428500      0.885100      1.729000
  C      -3.088500      1.878300      2.459300
  C      -3.398400      3.102700      1.856600
  Cl     -4.226600      4.348000      2.773100
  C      -3.049700      3.330900      0.520600
  C      -2.390000      2.337900     -0.210300
  C      -2.111300     -1.681100     -0.634000
  C      -3.372000     -1.607600     -1.460100
  O      -2.840300     -2.434200     -2.467800
  C      -1.627500     -2.556700     -1.763800
  C       0.924900     -0.882300      0.977100
  O      -0.022100     -1.418300      1.863800
  C       0.292500     -2.076300      3.086200
  C       2.306200     -0.968100      1.228600
  H       5.568100      1.028700     -0.308300
  H       6.625300     -0.300700      0.297600
  H       5.627300     -0.569400     -1.180100
  H       3.489100      0.588800     -1.548800
  H       2.387800      0.704900     -3.737600
  H       1.074400      1.889300     -4.089300
  H       2.332900      2.304000     -2.866500
  H      -2.206900     -0.061800      2.201500
  H      -3.360700      1.694500      3.490800
  H      -3.289000      4.275400      0.048700
  H      -2.122900      2.522200     -1.243400
  H      -2.234200     -2.213800      0.333400
  H      -4.238600     -2.094200     -0.961100
  H      -3.605700     -0.594500     -1.856500
  H      -1.455500     -3.608300     -1.445300
  H      -0.781700     -2.131200     -2.348500
  H      -0.649700     -2.390600      3.579900
  H       0.907600     -2.979000      2.886600
  H       0.834800     -1.383700      3.763800
  H       2.675800     -1.447500      2.124900
44
Coordinates from ORCA-job file E -1855.520109940442
  C       5.502328     -0.058250     -0.209171
  O       4.498565     -0.564837      0.649111
  C       3.189427     -0.439365      0.328928
  C       2.769763      0.186839     -0.853136
  C       1.406811      0.291105     -1.133110
  O       0.942199      0.886103     -2.258025
  C       1.833459      1.433264     -3.210914
  C       0.469590     -0.229653     -0.227615
  S      -1.238754     -0.088020     -0.591081
  C      -2.061381      1.118090      0.386382
  C      -2.380582      0.868304      1.726685
  C      -3.031868      1.846468      2.472714
  C      -3.360174      3.065849      1.875144
  Cl     -4.171735      4.289076      2.807953
  C      -3.046325      3.313556      0.537139
  C      -2.396309      2.335895     -0.211122
  C      -2.084058     -1.665381     -0.621478
  C      -3.385056     -1.628457     -1.424743
  O      -2.847384     -2.481887     -2.425615
  C      -1.599372     -2.572088     -1.753060
  C       0.897843     -0.860273      0.950544
  O      -0.057991     -1.356974      1.774911
  C       0.288187     -2.004530      2.984924
  C       2.258323     -0.963033      1.229730
  H       5.395463      1.033324     -0.329348
  H       6.474362     -0.273103      0.253231
  H       5.456216     -0.552612     -1.194536
  H       3.500989      0.590367     -1.549610
  H       2.492245      0.649569     -3.621317
  H       1.228710      1.854961     -4.024108
  H       2.438239      2.237244     -2.758865
  H      -2.132103     -0.085992      2.189142
  H      -3.282919      1.658681      3.515159
  H      -3.307053      4.265224      0.077488
  H      -2.149344      2.526628     -1.255216
  H      -2.164434     -2.157005      0.358383
  H      -4.227351     -2.101205     -0.893810
  H      -3.652215     -0.638658     -1.836070
  H      -1.390271     -3.600356     -1.416040
  H      -0.777706     -2.156575     -2.363657
  H      -0.645206     -2.311832      3.474209
  H       0.900170     -2.899162      2.781793
  H       0.834045     -1.314959      3.650124
  H       2.612857     -1.446538      2.137954
44
Coordinates from ORCA-job file E -1855.528538457242
  C       5.448704     -0.065002     -0.158876
  O       4.428060     -0.565644      0.681689
  C       3.155989     -0.426448      0.320039
  C       2.773443      0.199348     -0.878267
  C       1.417030      0.311439     -1.187361
  O       0.963290      0.890816     -2.295013
  C       1.883042      1.430381     -3.224777
  C       0.457719     -0.201003     -0.292891
  S      -1.230786     -0.039897     -0.698213
  C      -2.041086      1.118838      0.356981
  C      -2.311128      0.833220      1.700192
  C      -2.948369      1.788252      2.483351
  C      -3.304567      3.012989      1.914063
  Cl     -4.092950      4.203972      2.891357
  C      -3.039531      3.295654      0.573940
  C      -2.405014      2.340292     -0.212954
  C      -2.042289     -1.636008     -0.604687
  C      -3.388701     -1.666643     -1.352276
  O      -2.865178     -2.562457     -2.333400
  C      -1.576936     -2.590485     -1.719365
  C       0.857795     -0.830922      0.903360
  O      -0.124400     -1.296025      1.677216
  C       0.200374     -1.939540      2.895484
  C       2.206012     -0.944692      1.212980
  H       5.353414      1.023830     -0.286180
  H       6.399619     -0.287910      0.334087
  H       5.424977     -0.558834     -1.141830
  H       3.520103      0.594687     -1.559910
  H       2.547816      0.647869     -3.619138
  H       1.289439      1.847888     -4.043276
  H       2.479903      2.230992     -2.763703
  H      -2.030661     -0.127824      2.132838
  H      -3.165941      1.583202      3.531643
  H      -3.327174      4.255797      0.145151
  H      -2.191503      2.550065     -1.262693
  H      -2.054852     -2.061442      0.404277
  H      -4.195715     -2.120000     -0.761519
  H      -3.705991     -0.709703     -1.794724
  H      -1.313608     -3.589009     -1.346060
  H      -0.793501     -2.192463     -2.383059
  H      -0.747946     -2.228911      3.358549
  H       0.805599     -2.838552      2.708916
  H       0.741768     -1.255718      3.565110
  H       2.543928     -1.424603      2.128951
44
Coordinates from ORCA-job file E -1855.531500091332
  C       5.448725     -0.058415     -0.127180
  O       4.407520     -0.564509      0.687638
  C       3.143346     -0.415517      0.304631
  C       2.775909      0.218925     -0.892310
  C       1.421476      0.333602     -1.214612
  O       0.971218      0.917634     -2.319665
  C       1.897652      1.465667     -3.241702
  C       0.447759     -0.184704     -0.332478
  S      -1.225897      0.000754     -0.798147
  C      -2.026680      1.128119      0.314553
  C      -2.338728      0.801423      1.639036
  C      -2.976482      1.744867      2.436003
  C      -3.289884      2.995162      1.898033
  Cl     -4.082988      4.166343      2.892711
  C      -2.986245      3.318221      0.576251
  C      -2.353000      2.373700     -0.225903
  C      -2.018477     -1.595464     -0.562945
  C      -3.397605     -1.689241     -1.249749
  O      -2.901180     -2.642442     -2.192828
  C      -1.585216     -2.615482     -1.635948
  C       0.838791     -0.828227      0.869195
  O      -0.148179     -1.307823      1.626610
  C       0.175762     -1.977050      2.835096
  C       2.183941     -0.944374      1.186638
  H       5.362267      1.031367     -0.244131
  H       6.383456     -0.295350      0.388116
  H       5.443537     -0.539659     -1.115651
  H       3.528778      0.618793     -1.564633
  H       2.567846      0.688458     -3.634777
  H       1.302751      1.883093     -4.058328
  H       2.488235      2.264776     -2.772264
  H      -2.093404     -0.178983      2.043847
  H      -3.231606      1.512404      3.470316
  H      -3.248336      4.297598      0.174511
  H      -2.111919      2.609330     -1.264610
  H      -1.970678     -1.937004      0.473655
  H      -4.175913     -2.105862     -0.597505
  H      -3.753875     -0.767064     -1.733413
  H      -1.281936     -3.582753     -1.215067
  H      -0.833072     -2.255817     -2.354789
  H      -0.776730     -2.272762      3.284820
  H       0.781345     -2.870840      2.631149
  H       0.716789     -1.307704      3.517976
  H       2.521130     -1.433390      2.097849
44
Coordinates from ORCA-job file E -1855.532325898141
  C       5.464589     -0.124565     -0.176366
  O       4.419331     -0.565563      0.673140
  C       3.153126     -0.406844      0.294522
  C       2.783305      0.175482     -0.924391
  C       1.425552      0.301202     -1.231506
  O       0.966628      0.841255     -2.357987
  C       1.887411      1.330204     -3.321493
  C       0.448260     -0.159902     -0.317914
  S      -1.215879      0.057007     -0.830879
  C      -2.048535      1.103539      0.352911
  C      -2.459472      0.675047      1.618893
  C      -3.117985      1.571887      2.452686
  C      -3.353898      2.874944      2.008418
  Cl     -4.176650      3.983729      3.050442
  C      -2.951815      3.300473      0.743887
  C      -2.297847      2.402612     -0.096037
  C      -2.018439     -1.548979     -0.646471
  C      -3.366871     -1.635798     -1.392509
  O      -2.828823     -2.574064     -2.327813
  C      -1.539002     -2.555571     -1.712980
  C       0.846415     -0.745081      0.916603
  O      -0.132564     -1.144967      1.730913
  C       0.208301     -1.739059      2.977022
  C       2.194559     -0.870031      1.216515
  H       5.399685      0.959245     -0.349452
  H       6.396144     -0.357275      0.346951
  H       5.439391     -0.655881     -1.138602
  H       3.533240      0.527715     -1.626370
  H       2.539965      0.524223     -3.684857
  H       1.281666      1.715023     -4.146325
  H       2.496509      2.141422     -2.899193
  H      -2.273325     -0.343761      1.952246
  H      -3.451206      1.263920      3.444081
  H      -3.157548      4.319845      0.416246
  H      -1.982717      2.714931     -1.093893
  H      -2.001762     -1.886491      0.389371
  H      -4.174051     -2.057752     -0.779281
  H      -3.711757     -0.706813     -1.872230
  H      -1.245500     -3.528320     -1.295897
  H      -0.751621     -2.189188     -2.390162
  H      -0.741199     -1.976629      3.466364
  H       0.786990     -2.659452      2.818527
  H       0.784756     -1.038554      3.596525
  H       2.542845     -1.313363      2.146348
44
Coordinates from ORCA-job file E -1855.532461063149
  C       5.477261     -0.070299     -0.204268
  O       4.449268     -0.539422      0.651674
  C       3.176351     -0.395182      0.285266
  C       2.789969      0.192690     -0.924031
  C       1.427821      0.304205     -1.216139
  O       0.957023      0.847996     -2.338763
  C       1.867224      1.337471     -3.312928
  C       0.462137     -0.175353     -0.298819
  S      -1.208147      0.033946     -0.805380
  C      -2.056607      1.101185      0.356455
  C      -2.625788      0.660863      1.554014
  C      -3.294568      1.577473      2.358102
  C      -3.382551      2.911595      1.954222
  Cl     -4.224679      4.042929      2.958330
  C      -2.820521      3.350475      0.757003
  C      -2.158133      2.432748     -0.054449
  C      -2.017802     -1.571912     -0.606578
  C      -3.381967     -1.649821     -1.319484
  O      -2.872137     -2.583896     -2.272266
  C      -1.571705     -2.580397     -1.682930
  C       0.877314     -0.769730      0.921678
  O      -0.091175     -1.196081      1.735991
  C       0.261976     -1.808929      2.969472
  C       2.229854     -0.880099      1.207989
  H       5.389380      1.014313     -0.364579
  H       6.418873     -0.291966      0.306572
  H       5.449962     -0.591823     -1.172408
  H       3.529157      0.561647     -1.629090
  H       2.514404      0.529547     -3.682777
  H       1.251841      1.722801     -4.130960
  H       2.482207      2.147626     -2.896029
  H      -2.557112     -0.381374      1.859662
  H      -3.752275      1.260694      3.295253
  H      -2.913280      4.394513      0.457751
  H      -1.723903      2.754801     -1.002989
  H      -1.971432     -1.902496      0.432726
  H      -4.177853     -2.070511     -0.689366
  H      -3.736495     -0.715814     -1.783334
  H      -1.277013     -3.558182     -1.276943
  H      -0.792300     -2.220763     -2.373915
  H      -0.683024     -2.060109      3.460919
  H       0.845704     -2.722760      2.790555
  H       0.838682     -1.114293      3.595764
  H       2.594259     -1.328506      2.129028
44
Coordinates from ORCA-job file E -1855.533688954648
  C       5.484918     -0.065788     -0.184365
  O       4.444674     -0.490793      0.679725
  C       3.171513     -0.355936      0.292779
  C       2.805823      0.175871     -0.949474
  C       1.448891      0.287930     -1.263936
  O       1.007116      0.786145     -2.425797
  C       1.937079      1.195856     -3.417654
  C       0.470302     -0.135450     -0.334962
  S      -1.202250      0.056745     -0.829198
  C      -2.050540      1.074316      0.373977
  C      -2.663613      0.568499      1.521423
  C      -3.340303      1.443808      2.365177
  C      -3.386496      2.804665      2.054798
  Cl     -4.239705      3.885577      3.108496
  C      -2.770114      3.310532      0.910773
  C      -2.103273      2.434462      0.058689
  C      -1.968166     -1.574283     -0.652703
  C      -3.380924     -1.645541     -1.252372
  O      -2.937876     -2.509804     -2.295374
  C      -1.598712     -2.517652     -1.807695
  C       0.858789     -0.673440      0.909965
  O      -0.136443     -1.053674      1.722195
  C       0.168968     -1.622437      2.987168
  C       2.206481     -0.785088      1.221106
  H       5.401356      1.011491     -0.394581
  H       6.423304     -0.265695      0.343102
  H       5.464380     -0.631923     -1.128375
  H       3.558113      0.504308     -1.660811
  H       2.563292      0.348392     -3.734172
  H       1.341866      1.551971     -4.264693
  H       2.572244      2.011174     -3.040388
  H      -2.625979     -0.493260      1.762891
  H      -3.834902      1.072883      3.262361
  H      -2.824985      4.374694      0.683333
  H      -1.631954      2.811702     -0.850551
  H      -1.826244     -1.955158      0.365393
  H      -4.113537     -2.123161     -0.584476
  H      -3.789616     -0.694033     -1.630723
  H      -1.266170     -3.513004     -1.478438
  H      -0.879232     -2.110083     -2.537745
  H      -0.792334     -1.832516      3.467120
  H       0.735761     -2.556534      2.860409
  H       0.746094     -0.914216      3.599184
  H       2.552606     -1.191755      2.168420
44
Coordinates from ORCA-job file E -1855.534229986795
  C       5.472431     -0.085625     -0.188685
  O       4.423949     -0.460100      0.688245
  C       3.157549     -0.324913      0.290607
  C       2.801044      0.162004     -0.975390
  C       1.446491      0.275377     -1.299935
  O       1.007745      0.730011     -2.475782
  C       1.941636      1.092975     -3.480650
  C       0.464614     -0.105677     -0.358771
  S      -1.206196      0.077755     -0.848081
  C      -2.052863      1.048298      0.393391
  C      -2.763103      0.489674      1.456609
  C      -3.438099      1.334516      2.332167
  C      -3.380799      2.715619      2.138381
  Cl     -4.226663      3.758678      3.232884
  C      -2.664682      3.273572      1.079558
  C      -2.004134      2.429434      0.192136
  C      -1.937277     -1.571219     -0.692854
  C      -3.363472     -1.656574     -1.260818
  O      -2.925246     -2.481741     -2.338263
  C      -1.575185     -2.479201     -1.879291
  C       0.842912     -0.597694      0.909884
  O      -0.158751     -0.929547      1.729614
  C       0.143432     -1.433893      3.021582
  C       2.186860     -0.708344      1.233011
  H       5.403603      0.981696     -0.445880
  H       6.405112     -0.273420      0.351515
  H       5.450320     -0.691733     -1.106616
  H       3.558215      0.454038     -1.696273
  H       2.567641      0.231415     -3.754814
  H       1.349118      1.408585     -4.344523
  H       2.576344      1.924447     -3.141700
  H      -2.804254     -0.588202      1.610704
  H      -4.007531      0.924287      3.166195
  H      -2.638234      4.354758      0.943826
  H      -1.458836      2.848847     -0.656014
  H      -1.758289     -1.968917      0.310529
  H      -4.069393     -2.167465     -0.589901
  H      -3.801987     -0.704971     -1.602901
  H      -1.220903     -3.475789     -1.581027
  H      -0.877438     -2.043522     -2.612873
  H      -0.819290     -1.610827      3.511117
  H       0.703001     -2.377134      2.944733
  H       0.725317     -0.699720      3.596490
  H       2.525490     -1.079957      2.197867
44
Coordinates from ORCA-job file E -1855.534307424616
  C       5.446098     -0.090327     -0.196247
  O       4.394260     -0.460332      0.677825
  C       3.131454     -0.320315      0.278392
  C       2.777735      0.176807     -0.986466
  C       1.424458      0.286334     -1.317827
  O       0.980515      0.752941     -2.483533
  C       1.910604      1.153556     -3.476115
  C       0.443969     -0.111931     -0.385127
  S      -1.227935      0.062863     -0.863668
  C      -2.048699      1.047012      0.381951
  C      -2.804609      0.493755      1.414920
  C      -3.455410      1.345418      2.302331
  C      -3.322643      2.726134      2.151466
  Cl     -4.127912      3.777773      3.266335
  C      -2.559317      3.277795      1.122346
  C      -1.926143      2.428056      0.220945
  C      -1.944251     -1.587596     -0.671695
  C      -3.348487     -1.715900     -1.288925
  O      -2.854671     -2.566691     -2.323395
  C      -1.523948     -2.533658     -1.809839
  C       0.818190     -0.610614      0.885828
  O      -0.185909     -0.952854      1.694987
  C       0.112118     -1.412080      3.004241
  C       2.160580     -0.713928      1.216921
  H       5.386637      0.977874     -0.450167
  H       6.376078     -0.286258      0.344766
  H       5.422970     -0.692990     -1.115884
  H       3.536983      0.475461     -1.702210
  H       2.561712      0.313761     -3.757346
  H       1.314812      1.462513     -4.339641
  H       2.519730      1.998602     -3.125338
  H      -2.896087     -0.584995      1.543215
  H      -4.057117      0.940202      3.116362
  H      -2.471683      4.359806      1.022225
  H      -1.342173      2.843991     -0.603670
  H      -1.792294     -1.942065      0.350237
  H      -4.070392     -2.217167     -0.628570
  H      -3.789145     -0.784434     -1.679031
  H      -1.176789     -3.514486     -1.457718
  H      -0.798991     -2.120310     -2.528556
  H      -0.852217     -1.611231      3.481384
  H       0.707406     -2.335171      2.964569
  H       0.654315     -0.641882      3.570069
  H       2.496399     -1.093637      2.179653
44
Coordinates from ORCA-job file E -1855.534442583512
  C       5.452940     -0.085763     -0.203516
  O       4.403188     -0.443074      0.678354
  C       3.138229     -0.310475      0.279804
  C       2.782217      0.169840     -0.989788
  C       1.428379      0.273959     -1.320493
  O       0.981483      0.725391     -2.492534
  C       1.909663      1.106043     -3.495302
  C       0.448932     -0.113535     -0.381704
  S      -1.225028      0.059350     -0.860624
  C      -2.049845      1.032523      0.393533
  C      -2.852636      0.471886      1.385660
  C      -3.508033      1.316166      2.277514
  C      -3.332665      2.696032      2.171875
  Cl     -4.148331      3.738123      3.289094
  C      -2.521475      3.254700      1.183726
  C      -1.883678      2.413312      0.277437
  C      -1.937333     -1.596548     -0.694783
  C      -3.353504     -1.712427     -1.286797
  O      -2.877671     -2.524907     -2.359654
  C      -1.538723     -2.509742     -1.866983
  C       0.825659     -0.595003      0.896674
  O      -0.176931     -0.928115      1.713242
  C       0.118728     -1.340578      3.038976
  C       2.169429     -0.690950      1.226473
  H       5.395900      0.979887     -0.469472
  H       6.384414     -0.278326      0.336778
  H       5.425210     -0.698831     -1.116471
  H       3.540659      0.459857     -1.710652
  H       2.554689      0.258497     -3.767516
  H       1.311815      1.405835     -4.361031
  H       2.525340      1.952788     -3.159500
  H      -2.977772     -0.606815      1.482226
  H      -4.147585      0.905183      3.058942
  H      -2.401343      4.336041      1.118126
  H      -1.262359      2.836031     -0.515839
  H      -1.758863     -1.974047      0.314852
  H      -4.059612     -2.238998     -0.628547
  H      -3.806802     -0.770782     -1.635673
  H      -1.188462     -3.501007     -1.547444
  H      -0.823264     -2.078931     -2.585307
  H      -0.846343     -1.535594      3.516659
  H       0.726302     -2.256569      3.035298
  H       0.646823     -0.543823      3.581305
  H       2.508462     -1.056804      2.193079
44
Coordinates from ORCA-job file E -1855.534459218020
  C       5.457697     -0.083892     -0.212036
  O       4.410751     -0.440982      0.673367
  C       3.142698     -0.309952      0.279103
  C       2.782914      0.169640     -0.988067
  C       1.428012      0.274973     -1.313468
  O       0.980336      0.722952     -2.488639
  C       1.909167      1.086510     -3.498074
  C       0.449821     -0.107380     -0.369872
  S      -1.225873      0.066048     -0.850050
  C      -2.051382      1.040268      0.404927
  C      -2.850903      0.479644      1.400003
  C      -3.514179      1.324403      2.286191
  C      -3.353589      2.705205      2.169766
  Cl     -4.187522      3.748759      3.273540
  C      -2.545128      3.263666      1.179060
  C      -1.897349      2.421672      0.280099
  C      -1.941641     -1.589441     -0.692662
  C      -3.349803     -1.704127     -1.302883
  O      -2.859691     -2.503224     -2.378499
  C      -1.529371     -2.497504     -1.863756
  C       0.831139     -0.591414      0.905795
  O      -0.167832     -0.929501      1.726130
  C       0.132459     -1.365415      3.043784
  C       2.176418     -0.689533      1.229053
  H       5.402584      0.983087     -0.474446
  H       6.391320     -0.281073      0.323626
  H       5.423813     -0.693956     -1.127170
  H       3.539313      0.459021     -1.711719
  H       2.539868      0.228276     -3.771526
  H       1.312076      1.393821     -4.362098
  H       2.539644      1.924433     -3.166639
  H      -2.969726     -0.598886      1.503018
  H      -4.154919      0.913332      3.066192
  H      -2.437634      4.345558      1.103706
  H      -1.277946      2.844276     -0.514324
  H      -1.773656     -1.967735      0.320065
  H      -4.061750     -2.240555     -0.658461
  H      -3.802424     -0.760206     -1.647005
  H      -1.189078     -3.492234     -1.542728
  H      -0.799796     -2.067348     -2.568721
  H      -0.831773     -1.542879      3.530396
  H       0.717643     -2.295771      3.022723
  H       0.686379     -0.587162      3.588069
  H       2.519112     -1.055574      2.194228
44
Coordinates from ORCA-job file E -1855.534521568846
  C       5.455125     -0.073442     -0.207987
  O       4.407677     -0.428181      0.677508
  C       3.139767     -0.304384      0.280232
  C       2.780327      0.170890     -0.988401
  C       1.425501      0.269326     -1.316494
  O       0.977969      0.714839     -2.492770
  C       1.907851      1.088251     -3.497635
  C       0.447446     -0.115622     -0.374035
  S      -1.228924      0.057625     -0.853053
  C      -2.046967      1.035741      0.404139
  C      -2.853673      0.478282      1.395099
  C      -3.512135      1.325615      2.282716
  C      -3.340744      2.705319      2.170568
  Cl     -4.168594      3.752537      3.275761
  C      -2.524629      3.260109      1.183928
  C      -1.881261      2.415987      0.283959
  C      -1.945946     -1.597023     -0.692860
  C      -3.354844     -1.709381     -1.301755
  O      -2.864296     -2.492626     -2.388387
  C      -1.536241     -2.501065     -1.868033
  C       0.828597     -0.597463      0.902288
  O      -0.169873     -0.940302      1.720591
  C       0.129506     -1.360864      3.043442
  C       2.173487     -0.687877      1.228582
  H       5.399003      0.992354     -0.475127
  H       6.388300     -0.266959      0.329805
  H       5.423667     -0.687347     -1.120624
  H       3.536847      0.463007     -1.710680
  H       2.548146      0.236420     -3.769044
  H       1.312062      1.390688     -4.364263
  H       2.528488      1.931955     -3.162510
  H      -2.982336     -0.599358      1.495294
  H      -4.158716      0.917224      3.059258
  H      -2.408080      4.341329      1.112207
  H      -1.254813      2.835910     -0.506330
  H      -1.774823     -1.975023      0.319537
  H      -4.062599     -2.257261     -0.662333
  H      -3.812219     -0.763239     -1.633206
  H      -1.206127     -3.500179     -1.549698
  H      -0.800172     -2.074374     -2.568193
  H      -0.834963     -1.543081      3.527808
  H       0.724193     -2.285438      3.033927
  H       0.673366     -0.571549      3.581883
  H       2.515849     -1.051568      2.194886
44
Coordinates from ORCA-job file E -1855.534640247344
  C       5.448180     -0.037942     -0.193196
  O       4.398679     -0.379623      0.694143
  C       3.132355     -0.278856      0.286508
  C       2.775083      0.173411     -0.990755
  C       1.420684      0.250956     -1.327218
  O       0.973544      0.672460     -2.512431
  C       1.904804      1.051616     -3.513822
  C       0.442565     -0.130314     -0.384247
  S      -1.235059      0.039652     -0.862950
  C      -2.034552      1.018073      0.406923
  C      -2.872834      0.462957      1.371931
  C      -3.519629      1.310341      2.268767
  C      -3.306608      2.686229      2.188933
  Cl     -4.119837      3.734916      3.304094
  C      -2.457655      3.236985      1.227707
  C      -1.825291      2.394415      0.319106
  C      -1.950831     -1.615947     -0.702333
  C      -3.366357     -1.715125     -1.298305
  O      -2.878552     -2.415168     -2.440388
  C      -1.558232     -2.490533     -1.905881
  C       0.822039     -0.596004      0.897904
  O      -0.175954     -0.946969      1.711762
  C       0.117714     -1.317981      3.050806
  C       2.165573     -0.664539      1.233236
  H       5.393367      1.023786     -0.476476
  H       6.379647     -0.223164      0.350242
  H       5.420517     -0.664573     -1.097135
  H       3.532641      0.464107     -1.712037
  H       2.562572      0.208849     -3.771130
  H       1.311219      1.333835     -4.388556
  H       2.506687      1.910265     -3.183155
  H      -3.037827     -0.611849      1.448858
  H      -4.190929      0.904457      3.025412
  H      -2.307640      4.315562      1.181647
  H      -1.169544      2.811440     -0.448682
  H      -1.760289     -2.001384      0.303842
  H      -4.048974     -2.320701     -0.683866
  H      -3.850439     -0.761031     -1.561088
  H      -1.270813     -3.510702     -1.613047
  H      -0.798728     -2.073098     -2.585466
  H      -0.848310     -1.504412      3.530040
  H       0.732166     -2.229231      3.078182
  H       0.638696     -0.499394      3.567313
  H       2.506350     -1.015972      2.204806
44
Coordinates from ORCA-job file E -1855.534703070440
  C       5.450086     -0.015411     -0.176774
  O       4.399873     -0.368524      0.705160
  C       3.134709     -0.277111      0.292723
  C       2.777911      0.177407     -0.984150
  C       1.423787      0.246145     -1.323880
  O       0.977103      0.669725     -2.508233
  C       1.908000      1.066478     -3.502995
  C       0.445504     -0.143293     -0.384521
  S      -1.231666      0.023728     -0.866804
  C      -2.029487      1.014474      0.394445
  C      -2.856992      0.467647      1.373207
  C      -3.500459      1.323405      2.264335
  C      -3.295745      2.699482      2.164525
  Cl     -4.103949      3.758562      3.273172
  C      -2.458246      3.242018      1.188906
  C      -1.828381      2.390918      0.286652
  C      -1.952745     -1.629522     -0.695951
  C      -3.379516     -1.712398     -1.266691
  O      -2.913695     -2.375180     -2.439530
  C      -1.591443     -2.493917     -1.916891
  C       0.824773     -0.610566      0.896764
  O      -0.172639     -0.966831      1.709140
  C       0.123308     -1.351463      3.043948
  C       2.167858     -0.673238      1.234699
  H       5.389614      1.047596     -0.454001
  H       6.380951     -0.198094      0.368448
  H       5.429027     -0.636526     -1.084573
  H       3.535518      0.476139     -1.702019
  H       2.573726      0.231982     -3.766453
  H       1.314486      1.352449     -4.376439
  H       2.501398      1.926902     -3.161966
  H      -3.015367     -0.607037      1.465613
  H      -4.161408      0.923653      3.033326
  H      -2.314119      4.320700      1.127674
  H      -1.180615      2.800904     -0.491634
  H      -1.744893     -2.019444      0.304614
  H      -4.043294     -2.341236     -0.654719
  H      -3.875428     -0.754213     -1.487942
  H      -1.330574     -3.525977     -1.640453
  H      -0.826245     -2.088599     -2.597042
  H      -0.842272     -1.533697      3.525546
  H       0.729173     -2.268704      3.058925
  H       0.654665     -0.543221      3.565912
  H       2.507908     -1.026313      2.205925
44
Coordinates from ORCA-job file E -1855.534765991762
  C       5.458032     -0.008269     -0.161643
  O       4.407067     -0.367820      0.717119
  C       3.143260     -0.277038      0.301966
  C       2.788134      0.178882     -0.975866
  C       1.434728      0.245273     -1.318269
  O       0.990535      0.665252     -2.504075
  C       1.922123      1.061899     -3.498005
  C       0.454774     -0.145937     -0.381096
  S      -1.220393      0.017478     -0.868797
  C      -2.026179      1.010601      0.384473
  C      -2.822959      0.462632      1.387887
  C      -3.473258      1.319123      2.272748
  C      -3.304292      2.697914      2.143897
  Cl     -4.122204      3.757300      3.244047
  C      -2.497290      3.242470      1.144321
  C      -1.861287      2.389796      0.247690
  C      -1.945215     -1.635763     -0.694982
  C      -3.387198     -1.687501     -1.229090
  O      -2.954329     -2.282986     -2.449881
  C      -1.632630     -2.476861     -1.945735
  C       0.832078     -0.611839      0.901161
  O      -0.166956     -0.968221      1.712288
  C       0.129034     -1.369558      3.042183
  C       2.174839     -0.675438      1.241093
  H       5.394477      1.055643     -0.434406
  H       6.388665     -0.190489      0.383951
  H       5.439644     -0.625380     -1.072081
  H       3.546826      0.478533     -1.692352
  H       2.584781      0.225861     -3.763927
  H       1.328615      1.352902     -4.369714
  H       2.518986      1.918975     -3.154589
  H      -2.951234     -0.614054      1.501170
  H      -4.109267      0.917816      3.061828
  H      -2.381744      4.323098      1.060248
  H      -1.240170      2.800343     -0.551730
  H      -1.713583     -2.039166      0.294878
  H      -4.022601     -2.355765     -0.628044
  H      -3.899889     -0.724795     -1.378038
  H      -1.419892     -3.527983     -1.700118
  H      -0.855729     -2.090242     -2.622893
  H      -0.836696     -1.552377      3.523265
  H       0.728788     -2.290886      3.042211
  H       0.666857     -0.572940      3.574846
  H       2.512950     -1.030681      2.212059
44
Coordinates from ORCA-job file E -1855.534808229414
  C       5.468678     -0.024917     -0.159034
  O       4.418445     -0.398100      0.715641
  C       3.154322     -0.296393      0.303954
  C       2.799216      0.171241     -0.970255
  C       1.445950      0.249579     -1.309739
  O       1.002798      0.681615     -2.491336
  C       1.934046      1.070962     -3.488400
  C       0.464624     -0.143055     -0.373809
  S      -1.208322      0.025995     -0.863336
  C      -2.029388      1.016358      0.380603
  C      -2.774970      0.464874      1.421563
  C      -3.438040      1.317766      2.299497
  C      -3.330271      2.698339      2.129131
  Cl     -4.163446      3.752165      3.222337
  C      -2.575250      3.248150      1.092819
  C      -1.928071      2.397118      0.202046
  C      -1.942713     -1.624674     -0.694626
  C      -3.386343     -1.653578     -1.225177
  O      -2.965624     -2.252231     -2.449022
  C      -1.645781     -2.467959     -1.947468
  C       0.841560     -0.616856      0.906203
  O      -0.159058     -0.966041      1.719588
  C       0.137891     -1.389915      3.042087
  C       2.184873     -0.692515      1.243054
  H       5.399836      1.041326     -0.420811
  H       6.399927     -0.208495      0.385013
  H       5.452626     -0.633336     -1.075368
  H       3.558140      0.471451     -1.686511
  H       2.582955      0.226885     -3.762648
  H       1.339051      1.375498     -4.354503
  H       2.545820      1.917134     -3.143822
  H      -2.850472     -0.613139      1.564433
  H      -4.033948      0.913152      3.117756
  H      -2.508635      4.329836      0.976244
  H      -1.352411      2.810293     -0.629357
  H      -1.716042     -2.034265      0.293713
  H      -4.026466     -2.315564     -0.621666
  H      -3.889677     -0.685097     -1.368201
  H      -1.451117     -3.523125     -1.704617
  H      -0.863136     -2.092402     -2.624198
  H      -0.827447     -1.575630      3.523103
  H       0.732544     -2.314313      3.025463
  H       0.681092     -0.605543      3.587461
  H       2.522434     -1.052793      2.212195
44
Coordinates from ORCA-job file E -1855.534821798693
  C       5.469475     -0.027792     -0.163384
  O       4.418709     -0.395528      0.712964
  C       3.153982     -0.294209      0.301443
  C       2.799200      0.166054     -0.975061
  C       1.446028      0.245357     -1.314710
  O       1.003244      0.673562     -2.498402
  C       1.935540      1.054787     -3.497716
  C       0.464358     -0.141117     -0.376530
  S      -1.209204      0.029893     -0.863832
  C      -2.030394      1.012990      0.385833
  C      -2.789254      0.454476      1.413298
  C      -3.452747      1.301438      2.296747
  C      -3.332384      2.683094      2.144697
  Cl     -4.164099      3.729907      3.246341
  C      -2.564583      3.239725      1.121395
  C      -1.917122      2.394720      0.225031
  C      -1.943116     -1.621923     -0.700394
  C      -3.384552     -1.651036     -1.236774
  O      -2.957517     -2.242859     -2.461474
  C      -1.641247     -2.462607     -1.953107
  C       0.841141     -0.609317      0.905738
  O      -0.159663     -0.953669      1.720581
  C       0.135085     -1.358450      3.049451
  C       2.184274     -0.683359      1.243316
  H       5.400979      1.036889     -0.431785
  H       6.400399     -0.208111      0.382496
  H       5.454095     -0.642181     -1.075843
  H       3.558315      0.461026     -1.693298
  H       2.584534      0.208236     -3.764536
  H       1.341588      1.352129     -4.367144
  H       2.547218      1.903760     -3.159776
  H      -2.874412     -0.624765      1.541823
  H      -4.059228      0.891547      3.104456
  H      -2.487642      4.322154      1.019627
  H      -1.331322      2.813846     -0.596206
  H      -1.717083     -2.032177      0.288214
  H      -4.027394     -2.316688     -0.640041
  H      -3.888552     -0.682486     -1.378259
  H      -1.450621     -3.518461     -1.710006
  H      -0.853539     -2.088105     -2.624550
  H      -0.830906     -1.541067      3.530448
  H       0.734128     -2.280180      3.049563
  H       0.672673     -0.562757      3.584359
  H       2.521816     -1.036947      2.215004
44
Coordinates from ORCA-job file E -1855.534824082063
  C       5.471175     -0.037147     -0.168834
  O       4.420961     -0.403181      0.708802
  C       3.155656     -0.296952      0.300181
  C       2.800261      0.163148     -0.975784
  C       1.446878      0.246205     -1.313846
  O       1.003392      0.674476     -2.497344
  C       1.935746      1.049360     -3.499007
  C       0.465589     -0.138375     -0.374595
  S      -1.208420      0.035022     -0.859513
  C      -2.032188      1.015275      0.390662
  C      -2.786038      0.453245      1.420210
  C      -3.452835      1.296829      2.304306
  C      -3.340715      2.678952      2.150638
  Cl     -4.175496      3.721871      3.254027
  C      -2.578902      3.239172      1.124893
  C      -1.927889      2.397190      0.228141
  C      -1.944203     -1.616857     -0.702408
  C      -3.381570     -1.645225     -1.249782
  O      -2.944670     -2.235934     -2.471535
  C      -1.633290     -2.457598     -1.952235
  C       0.843220     -0.607406      0.907378
  O      -0.157078     -0.953247      1.721731
  C       0.136365     -1.349829      3.053248
  C       2.186432     -0.683447      1.243772
  H       5.403572      1.027376     -0.438108
  H       6.402327     -0.217901      0.376542
  H       5.454566     -0.652603     -1.080578
  H       3.559035      0.454843     -1.695669
  H       2.583900      0.200850     -3.761674
  H       1.341920      1.342221     -4.370061
  H       2.548245      1.899758     -3.166208
  H      -2.864118     -0.626341      1.549552
  H      -4.055948      0.884285      3.113151
  H      -2.509033      4.321932      1.021718
  H      -1.346515      2.819438     -0.594611
  H      -1.723437     -2.027617      0.287100
  H      -4.031098     -2.310528     -0.660025
  H      -3.882958     -0.675867     -1.395474
  H      -1.446561     -3.513435     -1.705909
  H      -0.839022     -2.085018     -2.616999
  H      -0.829889     -1.534975      3.532806
  H       0.740980     -2.267856      3.061750
  H       0.667307     -0.547059      3.584376
  H       2.524548     -1.037248      2.215216
44
Coordinates from ORCA-job file E -1855.534825180858
  C       5.471186     -0.036573     -0.168334
  O       4.421193     -0.404398      0.708767
  C       3.155928     -0.298723      0.299937
  C       2.800573      0.162560     -0.975595
  C       1.447182      0.245536     -1.313763
  O       1.003664      0.675928     -2.496489
  C       1.935879      1.052218     -3.497722
  C       0.465909     -0.139761     -0.374848
  S      -1.207840      0.034802     -0.859859
  C      -2.031710      1.015589      0.389789
  C      -2.782605      0.453875      1.421740
  C      -3.449774      1.297639      2.305304
  C      -3.340659      2.679728      2.148930
  Cl     -4.175626      3.722945      3.251899
  C      -2.581874      3.239680      1.120887
  C      -1.930620      2.397410      0.224537
  C      -1.944634     -1.616659     -0.701053
  C      -3.381510     -1.643377     -1.249303
  O      -2.943829     -2.232551     -2.471655
  C      -1.634207     -2.458671     -1.950031
  C       0.843501     -0.609967      0.906634
  O      -0.156920     -0.955496      1.721057
  C       0.136377     -1.352645      3.052418
  C       2.186655     -0.686143      1.243128
  H       5.401791      1.027775     -0.437808
  H       6.402343     -0.215553      0.377601
  H       5.456235     -0.652211     -1.079987
  H       3.559321      0.455418     -1.695041
  H       2.584388      0.204343     -3.761455
  H       1.341974      1.345799     -4.368485
  H       2.547934      1.902539     -3.163922
  H      -2.858508     -0.625626      1.552789
  H      -4.050681      0.885366      3.115940
  H      -2.514789      4.322398      1.015407
  H      -1.351855      2.819543     -0.600096
  H      -1.724106     -2.026483      0.288887
  H      -4.031924     -2.309039     -0.660965
  H      -3.882050     -0.673445     -1.393985
  H      -1.451917     -3.515035     -1.702318
  H      -0.837232     -2.089801     -2.613620
  H      -0.830007     -1.535614      3.532533
  H       0.738885     -2.272059      3.060574
  H       0.669460     -0.551066      3.583140
  H       2.524696     -1.040390      2.214436
