46
Coordinates from ORCA-job file
  C   5.35582016375949     -0.23095325555639     -0.71636349487574
  O   4.61368138704642     -0.43957397106220      0.49120700616739
  C   3.28063883493835     -0.28356895190988      0.50037098885990
  C   2.52986143832393      0.07923130902378     -0.62615701128592
  C   1.14679512012536      0.20909654635659     -0.51073174015315
  O   0.35153176192216      0.54727184244302     -1.55305360317037
  C   0.93903523761472      0.79347983737285     -2.84010004776576
  C   0.50569655439893     -0.00843253850510      0.72784869495860
  S   -1.22474694553923      0.16606136110523      1.06252174376843
  C   -2.15706715258635     -1.16016419342363      0.25977866954527
  C   -1.67972801561543     -1.89004647573103     -0.82610998804584
  C   -2.47120805205341     -2.91459322563432     -1.34230945280506
  C   -3.71873618951453     -3.19363223268317     -0.78529158466528
  C   -4.17989063501172     -2.45795107290225      0.30537706683529
  C   -3.39432667478383     -1.44169562469949      0.84416826836548
  C   -1.93636800298940      1.74789657726244      0.33346901887069
  C   -2.42799022820166      1.88409958401998     -1.12061837681915
  C   -1.88934414682686      3.34790560186258     -1.07289712446970
  C   -1.03386912479263      2.99026638539368      0.18043078477775
  C   1.29135699071559     -0.38230669741317      1.85817319940332
  O   0.61770477692097     -0.59895055859796      3.00305041493576
  C   1.33903803796535     -0.95725681898037      4.19202786711642
  C   2.66519107702307     -0.51608734354710      1.73693803697782
  H   6.39414421169482     -0.41716400301859     -0.45245860726677
  H   5.24798694750248      0.79873546207618     -1.06872431256302
  H   5.04457632646098     -0.93517652247079     -1.49301643306636
  H   3.01332135389696      0.25375481890304     -1.57339748453402
  H   0.10837611657225      1.04244934579774     -3.49716124698717
  H   1.44539554722668     -0.09929641539030     -3.21558436165433
  H   1.63678007874914      1.63349412496368     -2.79629907596873
  H   -0.71329411448069     -1.67416924802292     -1.25787857936814
  H   -2.10872485531233     -3.49503364153290     -2.18264693056473
  H   -4.32643914430497     -3.99238504791942     -1.19393619556302
  H   -5.14132579758251     -2.68400392611694      0.75100557115720
  H   -3.73609759509527     -0.89224358958203      1.71426688724461
  H   -2.74291722129394      1.92606053613818      1.04789103927387
  H   -1.87451307418045      1.25963422729661     -1.81596453913200
  H   -3.49753596205196      1.74132683233033     -1.27204867287633
  H   -1.34061520682153      3.69224136736046     -1.94908700292329
  H   -2.67407638372498      4.06886307576236     -0.84207515550543
  H   -1.02693245264737      3.68874824714545      1.01677554425416
  H   -0.00862463616970      2.73501507592124     -0.08469242557453
  H   2.04876964561608     -0.17298587057433      4.46664235403692
  H   0.58261114369316     -1.05664130746427      4.96690817864717
  H   1.85787635165665     -1.90962586547530      4.05826816646081
  H   3.28798250775724     -0.80179376032154      2.57148394594696
