46
Coordinates from ORCA-job file E -1361.007015577729
  C       5.491500     -0.281800     -0.605400
  O       4.641900     -0.359400      0.534700
  C       3.244900     -0.232000      0.495400
  C       2.541600     -0.011700     -0.701500
  C       1.139700      0.110300     -0.696000
  O       0.412600      0.331100     -1.875700
  C       0.986900      0.478000     -3.169600
  C       0.443800      0.010500      0.521100
  S      -1.311400      0.172800      0.561100
  C      -2.247600     -1.223900      0.064800
  C      -2.402200     -1.531700     -1.293400
  C      -3.148100     -2.650800     -1.676800
  C      -3.740000     -3.464300     -0.705600
  C      -3.586000     -3.159200      0.650300
  C      -2.840400     -2.040400      1.035800
  C      -2.075600      1.787200      0.406900
  C      -2.236300      2.245200     -1.038100
  C      -1.260100      3.385200     -0.783200
  C      -1.114900      2.943700      0.666600
  C       1.138100     -0.209500      1.722100
  O       0.407300     -0.302500      2.918400
  C       0.981700     -0.523200      4.202200
  C       2.539200     -0.329700      1.696800
  H       6.544200     -0.416500     -0.282700
  H       5.392500      0.713300     -1.088400
  H       5.235700     -1.085500     -1.327800
  H       3.082900      0.064200     -1.632500
  H       0.176000      0.650300     -3.906600
  H       1.533400     -0.446300     -3.452200
  H       1.672800      1.351200     -3.185600
  H      -1.948800     -0.910800     -2.053700
  H      -3.267100     -2.887600     -2.726200
  H      -4.316900     -4.330300     -1.003300
  H      -4.043500     -3.789400      1.401900
  H      -2.724000     -1.811100      2.087700
  H      -3.018500      1.868900      0.990300
  H      -1.863800      1.527200     -1.797100
  H      -3.264300      2.612600     -1.249500
  H      -0.315000      3.270800     -1.358500
  H      -1.734200      4.386200     -0.881600
  H      -1.537800      3.688400      1.375700
  H      -0.075000      2.643100      0.915400
  H       1.677700      0.303800      4.456400
  H       0.172700     -0.552000      4.960500
  H       1.518500     -1.495200      4.218400
  H       3.095700     -0.499300      2.608500
46
Coordinates from ORCA-job file E -1361.033051923729
  C       5.380412     -0.281747     -0.610766
  O       4.577158     -0.361382      0.560614
  C       3.221818     -0.234646      0.504330
  C       2.531428     -0.019168     -0.697135
  C       1.141807      0.101509     -0.681639
  O       0.415827      0.312815     -1.822300
  C       1.050144      0.441737     -3.090489
  C       0.440169      0.006524      0.533534
  S      -1.315075      0.154708      0.588524
  C      -2.250280     -1.244058      0.057169
  C      -2.387315     -1.548648     -1.303639
  C      -3.130650     -2.662561     -1.688713
  C      -3.733677     -3.469391     -0.721291
  C      -3.594331     -3.163940      0.634206
  C      -2.852650     -2.051648      1.027501
  C      -2.081858      1.787547      0.391251
  C      -2.256737      2.281290     -1.067522
  C      -1.268514      3.438824     -0.791628
  C      -1.113481      2.961418      0.671846
  C       1.143790     -0.209348      1.733926
  O       0.424130     -0.294135      2.890575
  C       1.064377     -0.511811      4.143144
  C       2.531886     -0.329106      1.712544
  H       6.420008     -0.413087     -0.301566
  H       5.273173      0.701173     -1.090859
  H       5.116055     -1.079329     -1.319276
  H       3.071794      0.052556     -1.630105
  H       0.265301      0.612300     -3.832010
  H       1.591107     -0.478313     -3.350229
  H       1.737361      1.298892     -3.096251
  H      -1.919597     -0.929302     -2.056816
  H      -3.238935     -2.901732     -2.739594
  H      -4.310705     -4.335279     -1.023172
  H      -4.061652     -3.791126      1.383232
  H      -2.743928     -1.817494      2.079677
  H      -3.006130      1.834297      0.977326
  H      -1.901979      1.587438     -1.832216
  H      -3.276213      2.629846     -1.270408
  H      -0.340838      3.355895     -1.367513
  H      -1.729486      4.428008     -0.875056
  H      -1.526629      3.671254      1.395997
  H      -0.089510      2.667980      0.926522
  H       1.757886      0.308414      4.373777
  H       0.282662     -0.540682      4.906204
  H       1.600505     -1.470766      4.144988
  H       3.091171     -0.495827      2.623306
46
Coordinates from ORCA-job file E -1361.042662116519
  C       5.319105     -0.281613     -0.628049
  O       4.537822     -0.355196      0.563253
  C       3.205962     -0.228874      0.502752
  C       2.506171     -0.019252     -0.695571
  C       1.120715      0.098690     -0.656434
  O       0.367109      0.302636     -1.757979
  C       1.003075      0.419295     -3.032245
  C       0.431532      0.007571      0.571270
  S      -1.319030      0.137883      0.663268
  C      -2.245773     -1.254400      0.063112
  C      -2.346094     -1.540215     -1.304063
  C      -3.085191     -2.645059     -1.714177
  C      -3.715608     -3.455280     -0.768421
  C      -3.609570     -3.164018      0.591683
  C      -2.873658     -2.061605      1.015661
  C      -2.075259      1.781345      0.374082
  C      -2.231375      2.271563     -1.099545
  C      -1.241697      3.441979     -0.808796
  C      -1.105940      2.964865      0.669954
  C       1.155690     -0.202561      1.770376
  O       0.446834     -0.279469      2.908284
  C       1.126261     -0.492375      4.146424
  C       2.538534     -0.319449      1.727853
  H       6.352574     -0.411730     -0.317777
  H       5.209667      0.693389     -1.112185
  H       5.050216     -1.080441     -1.325507
  H       3.032795      0.048271     -1.633663
  H       0.207107      0.588101     -3.753817
  H       1.534083     -0.500216     -3.292647
  H       1.691410      1.268593     -3.052178
  H      -1.851771     -0.914592     -2.034707
  H      -3.168435     -2.874832     -2.769864
  H      -4.289925     -4.315647     -1.092112
  H      -4.098854     -3.794939      1.323965
  H      -2.786672     -1.833078      2.071033
  H      -2.998166      1.804589      0.950519
  H      -1.876357      1.574946     -1.853316
  H      -3.245935      2.600416     -1.322534
  H      -0.312056      3.372975     -1.369765
  H      -1.689657      4.428035     -0.908429
  H      -1.524657      3.662009      1.393673
  H      -0.095387      2.676754      0.955957
  H       1.819698      0.325303      4.361008
  H       0.353574     -0.517087      4.910723
  H       1.661314     -1.445906      4.143127
  H       3.115616     -0.481472      2.625806
46
Coordinates from ORCA-job file E -1361.048345287362
  C       5.291375     -0.288989     -0.656877
  O       4.521070     -0.352388      0.546922
  C       3.191697     -0.223911      0.498121
  C       2.472166     -0.019115     -0.689986
  C       1.087867      0.099114     -0.624058
  O       0.306097      0.298858     -1.704284
  C       0.918138      0.404194     -2.996394
  C       0.418697      0.013713      0.619121
  S      -1.327513      0.128733      0.764195
  C      -2.235250     -1.250118      0.081079
  C      -2.292945     -1.508464     -1.293135
  C      -3.024830     -2.602667     -1.742252
  C      -3.686856     -3.425271     -0.829644
  C      -3.621263     -3.158394      0.537052
  C      -2.893909     -2.067141      1.003201
  C      -2.067126      1.769847      0.363771
  C      -2.192541      2.231276     -1.123631
  C      -1.212068      3.413786     -0.829917
  C      -1.106455      2.962997      0.663158
  C       1.167031     -0.191607      1.811369
  O       0.471356     -0.261576      2.954218
  C       1.171296     -0.470249      4.186902
  C       2.547507     -0.308258      1.739398
  H       6.323790     -0.420116     -0.346826
  H       5.180956      0.681791     -1.145980
  H       5.015084     -1.091815     -1.344520
  H       2.981832      0.043270     -1.636930
  H       0.102338      0.572091     -3.694400
  H       1.437335     -0.518665     -3.262605
  H       1.608499      1.249110     -3.037589
  H      -1.770895     -0.872239     -1.993499
  H      -3.077335     -2.814437     -2.803833
  H      -4.255036     -4.277243     -1.185160
  H      -4.135325     -3.798962      1.243801
  H      -2.835794     -1.853913      2.063636
  H      -2.998270      1.782829      0.925315
  H      -1.827054      1.519911     -1.856383
  H      -3.204752      2.540914     -1.377701
  H      -0.271347      3.348138     -1.370931
  H      -1.652687      4.398414     -0.962115
  H      -1.539953      3.663644      1.373657
  H      -0.105765      2.684970      0.987791
  H       1.867530      0.346511      4.388052
  H       0.402730     -0.488372      4.954157
  H       1.703384     -1.423732      4.181187
  H       3.146994     -0.466568      2.622546
46
Coordinates from ORCA-job file E -1361.052385567181
  C       5.294275     -0.300151     -0.666446
  O       4.523246     -0.362518      0.541669
  C       3.191654     -0.226694      0.496411
  C       2.465291     -0.012052     -0.684582
  C       1.081064      0.111460     -0.608464
  O       0.296308      0.325189     -1.686551
  C       0.909398      0.431331     -2.983370
  C       0.414902      0.022438      0.639713
  S      -1.329768      0.122129      0.852490
  C      -2.227134     -1.243265      0.097945
  C      -2.275909     -1.485353     -1.278470
  C      -3.013886     -2.571008     -1.740623
  C      -3.688440     -3.397777     -0.841189
  C      -3.631204     -3.144662      0.527243
  C      -2.898647     -2.062401      1.009103
  C      -2.062275      1.753426      0.344501
  C      -2.190774      2.191235     -1.145565
  C      -1.227973      3.389491     -0.863834
  C      -1.118609      2.961088      0.634012
  C       1.176742     -0.191546      1.828684
  O       0.484366     -0.263182      2.975812
  C       1.191920     -0.481797      4.207830
  C       2.555004     -0.313250      1.743011
  H       6.324865     -0.438736     -0.351174
  H       5.187904      0.673390     -1.151077
  H       5.011267     -1.100469     -1.354398
  H       2.969970      0.053550     -1.634289
  H       0.089835      0.611346     -3.675383
  H       1.418024     -0.496328     -3.253203
  H       1.607366      1.270053     -3.019648
  H      -1.743034     -0.847166     -1.964891
  H      -3.061162     -2.772508     -2.804511
  H      -4.260295     -4.241965     -1.209032
  H      -4.155178     -3.787338      1.224894
  H      -2.845595     -1.856889      2.071302
  H      -2.992775      1.744960      0.910178
  H      -1.825016      1.473088     -1.870402
  H      -3.210256      2.474061     -1.406156
  H      -0.285518      3.339458     -1.406425
  H      -1.673350      4.370729     -1.015033
  H      -1.558985      3.660372      1.343799
  H      -0.117555      2.701650      0.976161
  H       1.893187      0.331294      4.406441
  H       0.421693     -0.497868      4.974351
  H       1.717891     -1.438575      4.192450
  H       3.166965     -0.478341      2.616715
46
Coordinates from ORCA-job file E -1361.053065816147
  C       5.250886     -0.332057     -0.714270
  O       4.508803     -0.382805      0.512193
  C       3.174976     -0.234521      0.497479
  C       2.426834     -0.014188     -0.666576
  C       1.044280      0.121155     -0.566763
  O       0.248752      0.338601     -1.639522
  C       0.841701      0.428338     -2.946594
  C       0.399103      0.040653      0.689286
  S      -1.344328      0.131093      0.966757
  C      -2.203562     -1.219029      0.130507
  C      -2.183762     -1.448674     -1.247536
  C      -2.911443     -2.521019     -1.756190
  C      -3.643277     -3.347714     -0.902332
  C      -3.653587     -3.108470      0.469508
  C      -2.931674     -2.039769      0.997421
  C      -2.064083      1.734490      0.337253
  C      -2.140371      2.120310     -1.163608
  C      -1.229900      3.351525     -0.878458
  C      -1.166446      2.970645      0.629938
  C       1.185514     -0.179619      1.861721
  O       0.519219     -0.245362      3.028810
  C       1.254189     -0.468933      4.244153
  C       2.560395     -0.312785      1.753581
  H       6.288503     -0.479936     -0.425618
  H       5.139847      0.642283     -1.197926
  H       4.940339     -1.132482     -1.391297
  H       2.914427      0.045813     -1.625969
  H       0.014250      0.614266     -3.628204
  H       1.334416     -0.508985     -3.215198
  H       1.549414      1.259030     -2.996825
  H      -1.604293     -0.814804     -1.899845
  H      -2.905456     -2.712460     -2.822901
  H      -4.205391     -4.180675     -1.308403
  H      -4.220784     -3.750301      1.133259
  H      -2.931447     -1.845476      2.063108
  H      -3.019446      1.717214      0.863485
  H      -1.729294      1.392918     -1.855619
  H      -3.158715      2.361576     -1.470980
  H      -0.265445      3.318757     -1.384629
  H      -1.694851      4.316181     -1.078242
  H      -1.647790      3.678077      1.306049
  H      -0.172050      2.748080      1.018204
  H       1.967118      0.339840      4.421170
  H       0.503912     -0.478068      5.030992
  H       1.771419     -1.430823      4.213106
  H       3.188896     -0.481990      2.615523
46
Coordinates from ORCA-job file E -1361.052942832750
  C       5.331401     -0.373734     -0.665567
  O       4.554385     -0.444880      0.540137
  C       3.221946     -0.265502      0.497707
  C       2.505830      0.013855     -0.672540
  C       1.122376      0.175643     -0.604428
  O       0.370729      0.456730     -1.696576
  C       1.007685      0.576733     -2.982467
  C       0.440194      0.064891      0.629824
  S      -1.310004      0.145392      0.927495
  C      -2.193712     -1.229087      0.134687
  C      -2.214737     -1.519321     -1.230567
  C      -2.976473     -2.599659     -1.669450
  C      -3.702429     -3.373554     -0.762857
  C      -3.672744     -3.073746      0.596004
  C      -2.915733     -1.996745      1.055383
  C      -2.079352      1.737885      0.289476
  C      -2.257207      2.145364     -1.190723
  C      -1.382686      3.403532     -0.929753
  C      -1.208884      2.994314      0.559217
  C       1.199856     -0.211268      1.811813
  O       0.501928     -0.301650      2.963111
  C       1.198837     -0.581991      4.191728
  C       2.573589     -0.371191      1.734126
  H       6.357344     -0.555978     -0.352794
  H       5.254922      0.618673     -1.119122
  H       5.018952     -1.145668     -1.374669
  H       3.018659      0.098987     -1.616274
  H       0.206127      0.812057     -3.680965
  H       1.481545     -0.365482     -3.268697
  H       1.739203      1.388452     -2.977999
  H      -1.637687     -0.931143     -1.924061
  H      -3.001622     -2.838402     -2.726316
  H      -4.290191     -4.211997     -1.117858
  H      -4.234246     -3.673338      1.302723
  H      -2.883904     -1.755646      2.111062
  H      -3.002252      1.674076      0.871155
  H      -1.871719      1.448569     -1.926390
  H      -3.303992      2.345954     -1.428274
  H      -0.451794      3.428308     -1.498400
  H      -1.890613      4.356701     -1.081906
  H      -1.663164      3.666592      1.289941
  H      -0.184680      2.798431      0.882666
  H       1.924108      0.205349      4.411821
  H       0.425296     -0.599028      4.956635
  H       1.694804     -1.554433      4.139565
  H       3.179906     -0.583143      2.602377
46
Coordinates from ORCA-job file E -1361.053859448091
  C       5.304009     -0.357747     -0.688010
  O       4.540835     -0.434241      0.523306
  C       3.209355     -0.262504      0.493585
  C       2.483089      0.011497     -0.672858
  C       1.100405      0.167048     -0.593779
  O       0.334228      0.439836     -1.675967
  C       0.954758      0.569787     -2.965647
  C       0.431976      0.055424      0.645956
  S      -1.318240      0.149030      0.915551
  C      -2.197707     -1.229390      0.145625
  C      -2.172631     -1.537743     -1.216425
  C      -2.923054     -2.618994     -1.670512
  C      -3.684755     -3.377176     -0.780187
  C      -3.700928     -3.060437      0.576033
  C      -2.955083     -1.982521      1.048925
  C      -2.076650      1.742719      0.296691
  C      -2.205868      2.136082     -1.196003
  C      -1.338204      3.398403     -0.920031
  C      -1.207607      2.998966      0.578404
  C       1.197054     -0.214983      1.821365
  O       0.510024     -0.306900      2.976718
  C       1.216829     -0.579355      4.197892
  C       2.571446     -0.369859      1.735164
  H       6.334636     -0.533990     -0.389527
  H       5.218652      0.633863     -1.141210
  H       4.990282     -1.130018     -1.395840
  H       2.987321      0.098215     -1.621248
  H       0.145126      0.794409     -3.657355
  H       1.439460     -0.364343     -3.259697
  H       1.675273      1.391120     -2.969701
  H      -1.570218     -0.959251     -1.898946
  H      -2.911817     -2.870500     -2.724664
  H      -4.264421     -4.216982     -1.145322
  H      -4.289506     -3.649366      1.269451
  H      -2.958467     -1.731230      2.102777
  H      -3.020237      1.700122      0.843660
  H      -1.789584      1.433672     -1.910079
  H      -3.242207      2.340314     -1.469700
  H      -0.390374      3.412804     -1.458307
  H      -1.846737      4.346806     -1.091092
  H      -1.680052      3.681671      1.285865
  H      -0.191702      2.799834      0.922363
  H       1.938635      0.212308      4.413065
  H       0.452338     -0.600631      4.970990
  H       1.719380     -1.548291      4.146623
  H       3.180735     -0.577577      2.602097
46
Coordinates from ORCA-job file E -1361.053665575616
  C       5.294966     -0.379856     -0.705858
  O       4.546462     -0.422392      0.515107
  C       3.213616     -0.260803      0.495959
  C       2.472349     -0.030777     -0.670770
  C       1.089277      0.117368     -0.582762
  O       0.309556      0.337576     -1.667640
  C       0.914992      0.430329     -2.966373
  C       0.435960      0.044285      0.666605
  S      -1.313494      0.133108      0.950246
  C      -2.184634     -1.215780      0.126451
  C      -2.097625     -1.503334     -1.237525
  C      -2.838476     -2.567199     -1.745013
  C      -3.652869     -3.328160     -0.905077
  C      -3.729941     -3.032770      0.454307
  C      -2.992443     -1.973925      0.980025
  C      -2.077647      1.737202      0.372874
  C      -2.269689      2.135154     -1.111098
  C      -1.391132      3.396439     -0.866138
  C      -1.187201      2.984209      0.620899
  C       1.214370     -0.183314      1.840540
  O       0.540114     -0.244189      3.005729
  C       1.259645     -0.471403      4.227302
  C       2.589123     -0.332344      1.746667
  H       6.330674     -0.539930     -0.415685
  H       5.198274      0.596288     -1.189697
  H       4.978641     -1.176140     -1.385580
  H       2.965168      0.027489     -1.627382
  H       0.096155      0.616059     -3.658908
  H       1.413241     -0.505535     -3.231486
  H       1.621641      1.262818     -3.007846
  H      -1.455466     -0.922071     -1.881930
  H      -2.778573     -2.802693     -2.801213
  H      -4.224862     -4.154086     -1.311590
  H      -4.357338     -3.625607      1.109211
  H      -3.040143     -1.743329      2.037666
  H      -3.000059      1.706179      0.955711
  H      -1.883684      1.436765     -1.845582
  H      -3.316823      2.342262     -1.338009
  H      -0.469778      3.415567     -1.448456
  H      -1.909767      4.344742     -1.003838
  H      -1.615116      3.665310      1.357482
  H      -0.155182      2.773348      0.905131
  H       1.976888      0.332554      4.410691
  H       0.503754     -0.474257      5.009205
  H       1.769964     -1.437511      4.203000
  H       3.206911     -0.507747      2.614651
46
Coordinates from ORCA-job file E -1361.054205375234
  C       5.288996     -0.372498     -0.704550
  O       4.537930     -0.468079      0.511272
  C       3.208782     -0.281175      0.499813
  C       2.474535      0.027484     -0.653138
  C       1.094083      0.196071     -0.560028
  O       0.324301      0.501957     -1.631302
  C       0.937608      0.672906     -2.917760
  C       0.436310      0.064001      0.681278
  S      -1.312494      0.171179      0.972589
  C      -2.183243     -1.200800      0.187747
  C      -2.067507     -1.549018     -1.159655
  C      -2.807856     -2.626890     -1.637512
  C      -3.651535     -3.341049     -0.785579
  C      -3.757663     -2.984891      0.557300
  C      -3.019236     -1.912762      1.053716
  C      -2.069316      1.745236      0.309830
  C      -2.272705      2.057599     -1.192156
  C      -1.403229      3.337535     -1.021594
  C      -1.176669      3.002420      0.481818
  C       1.208101     -0.237109      1.842308
  O       0.530305     -0.346573      3.001840
  C       1.242186     -0.649773      4.210617
  C       2.579937     -0.407912      1.743830
  H       6.321082     -0.567807     -0.423609
  H       5.211895      0.630446     -1.133974
  H       4.959207     -1.123838     -1.427602
  H       2.970862      0.133437     -1.603798
  H       0.125697      0.918277     -3.599626
  H       1.422844     -0.250315     -3.244173
  H       1.657296      1.494951     -2.899865
  H      -1.404402     -1.003060     -1.813805
  H      -2.724857     -2.909636     -2.680487
  H      -4.223078     -4.178011     -1.169538
  H      -4.406538     -3.542049      1.222491
  H      -3.087145     -1.638340      2.099850
  H      -2.989251      1.750656      0.897331
  H      -1.885788      1.323094     -1.890390
  H      -3.322954      2.243561     -1.422428
  H      -0.489085      3.335520     -1.615234
  H      -1.932494      4.272761     -1.200684
  H      -1.589883      3.720649      1.190715
  H      -0.139665      2.804047      0.756584
  H       1.973344      0.130331      4.436942
  H       0.484840     -0.679503      4.990402
  H       1.734958     -1.622462      4.137450
  H       3.191296     -0.640667      2.602763
46
Coordinates from ORCA-job file E -1361.054452670657
  C       5.298926     -0.363294     -0.710745
  O       4.544724     -0.498955      0.499020
  C       3.217927     -0.295753      0.494802
  C       2.487644      0.068130     -0.644817
  C       1.108822      0.248673     -0.545580
  O       0.342369      0.611566     -1.601999
  C       0.958103      0.846329     -2.876849
  C       0.449187      0.072317      0.688556
  S      -1.298101      0.194585      0.989450
  C      -2.173511     -1.189496      0.231825
  C      -1.963385     -1.639679     -1.073249
  C      -2.710172     -2.719769     -1.536038
  C      -3.652316     -3.336030     -0.711350
  C      -3.850057     -2.880187      0.590453
  C      -3.104998     -1.806078      1.072663
  C      -2.059888      1.751182      0.289906
  C      -2.326520      1.999851     -1.213537
  C      -1.469320      3.297137     -1.126712
  C      -1.160087      3.011652      0.372983
  C       1.216709     -0.281194      1.837064
  O       0.535007     -0.430667      2.990004
  C       1.239533     -0.789110      4.187544
  C       2.586544     -0.464977      1.732793
  H       6.328116     -0.583123     -0.436972
  H       5.235944      0.657332     -1.098964
  H       4.961396     -1.080028     -1.464743
  H       2.985661      0.210339     -1.589817
  H       0.148522      1.132685     -3.545461
  H       1.438342     -0.060884     -3.252069
  H       1.683347      1.661476     -2.814862
  H      -1.224820     -1.169645     -1.705528
  H      -2.554096     -3.081485     -2.545718
  H      -4.227675     -4.175682     -1.083495
  H      -4.574037     -3.362760      1.236129
  H      -3.241894     -1.458254      2.089935
  H      -2.957471      1.789341      0.909846
  H      -1.958079      1.243161     -1.898605
  H      -3.387712      2.162923     -1.407816
  H      -0.586794      3.290503     -1.765850
  H      -2.022614      4.218314     -1.306393
  H      -1.527627      3.754018      1.082126
  H      -0.109264      2.816664      0.590905
  H       1.978085     -0.026547      4.447365
  H       0.479472     -0.841886      4.963611
  H       1.722343     -1.763413      4.077756
  H       3.193518     -0.739380      2.582434
46
Coordinates from ORCA-job file E -1361.054757947744
  C       5.322876     -0.319867     -0.707417
  O       4.564887     -0.490639      0.495547
  C       3.237159     -0.294690      0.492335
  C       2.506846      0.091094     -0.640324
  C       1.126461      0.259661     -0.539720
  O       0.356251      0.640575     -1.587033
  C       0.970793      0.921135     -2.853287
  C       0.466012      0.050486      0.688560
  S      -1.277314      0.197233      1.003608
  C      -2.171267     -1.183056      0.260280
  C      -1.893617     -1.710382     -1.002315
  C      -2.656009     -2.781370     -1.461150
  C      -3.681454     -3.309866     -0.675918
  C      -3.946515     -2.776271      0.583612
  C      -3.184837     -1.712775      1.063738
  C      -2.037016      1.749528      0.286842
  C      -2.362566      1.951773     -1.211538
  C      -1.536873      3.273469     -1.184877
  C      -1.138527      3.013479      0.299468
  C       1.232711     -0.325800      1.830094
  O       0.546223     -0.507112      2.975106
  C       1.246678     -0.886048      4.168813
  C       2.603693     -0.499983      1.724404
  H       6.351937     -0.542062     -0.434840
  H       5.257148      0.710190     -1.069269
  H       4.992264     -1.018157     -1.481461
  H       3.005453      0.261273     -1.580429
  H       0.158295      1.218913     -3.513220
  H       1.461391      0.031822     -3.256948
  H       1.688046      1.741103     -2.765325
  H      -1.096890     -1.302466     -1.606690
  H      -2.447630     -3.203546     -2.437358
  H      -4.268521     -4.142723     -1.044929
  H      -4.734272     -3.192202      1.200357
  H      -3.371379     -1.309637      2.052520
  H      -2.913270      1.812887      0.934287
  H      -1.999329      1.186014     -1.891058
  H      -3.433707      2.081656     -1.372309
  H      -0.690915      3.285593     -1.870468
  H      -2.125774      4.176412     -1.342903
  H      -1.458183      3.766641      1.020194
  H      -0.076646      2.819093      0.452072
  H       1.977509     -0.123752      4.450199
  H       0.482154     -0.961740      4.938642
  H       1.737884     -1.853916      4.041250
  H       3.209640     -0.792071      2.568859
46
Coordinates from ORCA-job file E -1361.055156668985
  C       5.342206     -0.268426     -0.699665
  O       4.584581     -0.462793      0.500260
  C       3.254743     -0.282768      0.496920
  C       2.520828      0.101659     -0.633713
  C       1.138508      0.250846     -0.531917
  O       0.358549      0.616173     -1.576859
  C       0.966580      0.907703     -2.844247
  C       0.480182      0.024053      0.694423
  S      -1.257582      0.196105      1.020546
  C      -2.171545     -1.171266      0.276496
  C      -1.853465     -1.738915     -0.958144
  C      -2.628461     -2.797432     -1.425281
  C      -3.707020     -3.270265     -0.676769
  C      -4.012720     -2.694271      0.554459
  C      -3.237989     -1.644678      1.044515
  C      -2.008466      1.750724      0.292453
  C      -2.379688      1.916463     -1.199624
  C      -1.599984      3.267645     -1.209534
  C      -1.118432      3.019282      0.253059
  C       1.249181     -0.359648      1.832391
  O       0.560202     -0.569714      2.970085
  C       1.262051     -0.951204      4.162709
  C       2.622393     -0.513447      1.725675
  H       6.373081     -0.482356     -0.427308
  H       5.265414      0.765085     -1.049066
  H       5.020904     -0.960868     -1.482760
  H       3.016855      0.283913     -1.573066
  H       0.147826      1.194156     -3.501193
  H       1.468618      0.026483     -3.251607
  H       1.673622      1.736609     -2.756543
  H      -1.021680     -1.367027     -1.538108
  H      -2.388729     -3.252323     -2.379318
  H      -4.303616     -4.093636     -1.051600
  H      -4.841735     -3.067953      1.143586
  H      -3.453843     -1.213464      2.015552
  H      -2.868254      1.835480      0.959151
  H      -2.003897      1.152530     -1.875113
  H      -3.457981      2.003531     -1.339676
  H      -0.791812      3.316822     -1.937434
  H      -2.231253      4.147127     -1.331757
  H      -1.393080      3.774399      0.989914
  H      -0.049678      2.824527      0.341392
  H       1.978094     -0.179869      4.457057
  H       0.494937     -1.049894      4.927300
  H       1.770779     -1.908530      4.025517
  H       3.230574     -0.810669      2.566842
46
Coordinates from ORCA-job file E -1361.055482504976
  C       5.344351     -0.220650     -0.696487
  O       4.592232     -0.442345      0.502153
  C       3.260355     -0.277632      0.503671
  C       2.520686      0.112136     -0.621046
  C       1.137569      0.247073     -0.513557
  O       0.349559      0.611166     -1.552885
  C       0.950817      0.920323     -2.819423
  C       0.485249      0.005406      0.712956
  S      -1.246643      0.200254      1.047840
  C      -2.173437     -1.153960      0.295582
  C      -1.814387     -1.755213     -0.910986
  C      -2.595243     -2.803387     -1.392178
  C      -3.718881     -3.231572     -0.684318
  C      -4.064314     -2.621705      0.519962
  C      -3.284771     -1.582470      1.024259
  C      -1.979455      1.752682      0.293869
  C      -2.400309      1.873146     -1.188732
  C      -1.645011      3.237369     -1.249813
  C      -1.078681      3.007190      0.185387
  C       1.259210     -0.391035      1.843253
  O       0.574002     -0.626813      2.977607
  C       1.283094     -1.013186      4.164586
  C       2.633244     -0.531217      1.730509
  H       6.378390     -0.425922     -0.429881
  H       5.253573      0.816918     -1.030114
  H       5.029232     -0.905222     -1.488935
  H       3.011906      0.306451     -1.560563
  H       0.127280      1.202290     -3.472091
  H       1.461326      0.047815     -3.235137
  H       1.649575      1.755523     -2.726641
  H      -0.949032     -1.414892     -1.461293
  H      -2.324340     -3.285038     -2.324468
  H      -4.319568     -4.047476     -1.068813
  H      -4.928553     -2.961611      1.078123
  H      -3.531208     -1.127660      1.977116
  H      -2.817097      1.880637      0.981913
  H      -2.022447      1.101526     -1.853295
  H      -3.483106      1.933559     -1.306339
  H      -0.881195      3.301666     -2.023684
  H      -2.301476      4.102355     -1.336574
  H      -1.291148      3.776395      0.927876
  H      -0.010054      2.792942      0.205048
  H       1.989872     -0.236075      4.466015
  H       0.519057     -1.130912      4.929389
  H       1.803791     -1.962058      4.014549
  H       3.245785     -0.836867      2.565591
46
Coordinates from ORCA-job file E -1361.055730193636
  C       5.341799     -0.175193     -0.703843
  O       4.598363     -0.398470      0.500707
  C       3.262672     -0.261427      0.503488
  C       2.513252      0.095331     -0.625226
  C       1.128539      0.206517     -0.513716
  O       0.329235      0.530381     -1.558244
  C       0.920558      0.810333     -2.837139
  C       0.485276     -0.020601      0.721203
  S      -1.242977      0.179042      1.054223
  C      -2.181807     -1.158796      0.282777
  C      -1.801793     -1.771179     -0.910986
  C      -2.591668     -2.803977     -1.411552
  C      -3.741521     -3.207080     -0.731765
  C      -4.105479     -2.587412      0.462052
  C      -3.319792     -1.561508      0.983989
  C      -1.959137      1.745713      0.306723
  C      -2.358319      1.882095     -1.179689
  C      -1.654570      3.274792     -1.188682
  C      -1.067811      3.006589      0.230666
  C       1.268868     -0.395807      1.852990
  O       0.590945     -0.633616      2.991068
  C       1.312844     -0.986216      4.182146
  C       2.644644     -0.510932      1.735514
  H       6.380982     -0.352700     -0.437523
  H       5.224272      0.855387     -1.050468
  H       5.039359     -0.877855     -1.485318
  H       2.997299      0.275523     -1.571162
  H       0.090027      1.058106     -3.494669
  H       1.442249     -0.067820     -3.226314
  H       1.606804      1.658234     -2.772903
  H      -0.913725     -1.451933     -1.437056
  H      -2.306175     -3.294131     -2.334988
  H      -4.348652     -4.011984     -1.129183
  H      -4.991089     -2.908050      0.997717
  H      -3.582573     -1.097216      1.927680
  H      -2.807377      1.869878      0.983176
  H      -1.920783      1.145543     -1.846257
  H      -3.438139      1.894779     -1.333426
  H      -0.905205      3.410537     -1.968576
  H      -2.349315      4.113183     -1.225548
  H      -1.269080      3.749558      1.002398
  H       0.001038      2.793226      0.224250
  H       2.004262     -0.189212      4.466604
  H       0.554001     -1.107905      4.951343
  H       1.852691     -1.925988      4.043249
  H       3.266806     -0.797841      2.570272
46
Coordinates from ORCA-job file E -1361.056069922534
  C       5.349026     -0.154903     -0.700253
  O       4.606243     -0.396702      0.501166
  C       3.270588     -0.258271      0.506937
  C       2.521164      0.116201     -0.616049
  C       1.136368      0.225939     -0.502655
  O       0.337814      0.562883     -1.543837
  C       0.929064      0.855777     -2.819844
  C       0.493182     -0.020666      0.728608
  S      -1.233024      0.183847      1.064402
  C      -2.178803     -1.152065      0.296143
  C      -1.760942     -1.818062     -0.854962
  C      -2.556371     -2.846382     -1.356366
  C      -3.748232     -3.192125     -0.718804
  C      -4.148851     -2.520157      0.434507
  C      -3.358566     -1.498356      0.957360
  C      -1.943867      1.747833      0.303228
  C      -2.395603      1.855622     -1.169189
  C      -1.713116      3.258156     -1.214778
  C      -1.038857      2.991954      0.165137
  C       1.276569     -0.416495      1.853062
  O       0.597950     -0.675155      2.986103
  C       1.319378     -1.043588      4.172885
  C       2.652423     -0.529022      1.734154
  H       6.388597     -0.335299     -0.437447
  H       5.229736      0.880610     -1.031197
  H       5.046554     -0.846304     -1.491731
  H       3.005014      0.308009     -1.559693
  H       0.098680      1.108909     -3.475443
  H       1.451257     -0.018660     -3.216604
  H       1.614500      1.703672     -2.747009
  H      -0.839527     -1.543789     -1.348450
  H      -2.242358     -3.377715     -2.247165
  H      -4.359501     -3.994004     -1.115988
  H      -5.066697     -2.797765      0.939015
  H      -3.650642     -0.994105      1.871504
  H      -2.766315      1.907128      1.003932
  H      -1.956621      1.120111     -1.836490
  H      -3.478656      1.843842     -1.296202
  H      -1.018330      3.413993     -2.040110
  H      -2.423898      4.083879     -1.199233
  H      -1.172988      3.742883      0.943678
  H       0.022536      2.757351      0.085862
  H       2.010190     -0.249874      4.467797
  H       0.560341     -1.176319      4.940022
  H       1.859659     -1.981079      4.020845
  H       3.274735     -0.831836      2.563150
46
Coordinates from ORCA-job file E -1361.056344348452
  C       5.353067     -0.157015     -0.703209
  O       4.611345     -0.399540      0.498742
  C       3.275800     -0.261791      0.506112
  C       2.524708      0.114825     -0.615456
  C       1.139606      0.223575     -0.500847
  O       0.342140      0.568756     -1.539765
  C       0.931336      0.863808     -2.816028
  C       0.498177     -0.023233      0.731448
  S      -1.227904      0.175638      1.069092
  C      -2.176275     -1.155258      0.292454
  C      -1.733614     -1.854504     -0.828605
  C      -2.532280     -2.878077     -1.334966
  C      -3.752050     -3.185792     -0.732222
  C      -4.177354     -2.481185      0.392701
  C      -3.384077     -1.464892      0.921104
  C      -1.934586      1.744221      0.309611
  C      -2.413022      1.848556     -1.153035
  C      -1.761492      3.265873     -1.194406
  C      -1.020594      2.977837      0.145838
  C       1.283558     -0.417701      1.854317
  O       0.606190     -0.674129      2.988512
  C       1.328202     -1.039934      4.175821
  C       2.659174     -0.531731      1.734175
  H       6.393406     -0.333283     -0.440724
  H       5.229694      0.877528     -1.035545
  H       5.052824     -0.850905     -1.493375
  H       3.007952      0.308284     -1.558953
  H       0.099799      1.117272     -3.470129
  H       1.453526     -0.009902     -3.214140
  H       1.615299      1.712922     -2.742882
  H      -0.788961     -1.612590     -1.294250
  H      -2.199077     -3.434913     -2.202905
  H      -4.366177     -3.983575     -1.133200
  H      -5.116464     -2.730743      0.872078
  H      -3.695912     -0.936435      1.814978
  H      -2.743268      1.921974      1.021530
  H      -1.950129      1.133295     -1.826456
  H      -3.495387      1.804219     -1.275133
  H      -1.115439      3.464941     -2.049439
  H      -2.490824      4.071902     -1.115483
  H      -1.101454      3.721748      0.938420
  H       0.030570      2.728210      0.005039
  H       2.022649     -0.247457      4.465274
  H       0.569976     -1.166009      4.944859
  H       1.864113     -1.980458      4.027034
  H       3.283029     -0.834435      2.562014
46
Coordinates from ORCA-job file E -1361.056587172929
  C       5.356667     -0.186904     -0.707618
  O       4.614608     -0.410021      0.497837
  C       3.280035     -0.267114      0.504904
  C       2.528505      0.097869     -0.620641
  C       1.143659      0.213132     -0.506885
  O       0.349576      0.552406     -1.549319
  C       0.938654      0.823270     -2.830764
  C       0.502033     -0.018807      0.728795
  S      -1.226917      0.161019      1.063595
  C      -2.171614     -1.164449      0.271027
  C      -1.719999     -1.869983     -0.841809
  C      -2.518692     -2.890317     -1.355084
  C      -3.747785     -3.188635     -0.767612
  C      -4.182667     -2.477597      0.349891
  C      -3.389522     -1.465387      0.885357
  C      -1.936132      1.741420      0.327827
  C      -2.425759      1.865877     -1.128285
  C      -1.811827      3.300619     -1.131855
  C      -1.017988      2.972318      0.168112
  C       1.288478     -0.397937      1.856059
  O       0.612646     -0.633612      2.995769
  C       1.334967     -0.984482      4.187229
  C       2.663766     -0.517220      1.737431
  H       6.396819     -0.360641     -0.442660
  H       5.234953      0.842607     -1.055694
  H       5.055599     -0.892463     -1.487080
  H       3.012332      0.279421     -1.566221
  H       0.107386      1.070227     -3.487841
  H       1.456560     -0.059006     -3.215026
  H       1.625314      1.671441     -2.772394
  H      -0.766876     -1.638734     -1.295001
  H      -2.177809     -3.451836     -2.217010
  H      -4.362178     -3.983374     -1.174159
  H      -5.129016     -2.720229      0.818471
  H      -3.709344     -0.932967      1.774153
  H      -2.738952      1.920844      1.045629
  H      -1.924902      1.188307     -1.813700
  H      -3.504278      1.784136     -1.260816
  H      -1.210166      3.560859     -2.002461
  H      -2.560803      4.078283     -0.980928
  H      -1.056571      3.695576      0.982756
  H       0.022052      2.715951     -0.028137
  H       2.036416     -0.192707      4.461164
  H       0.577739     -1.091012      4.960253
  H       1.862714     -1.931924      4.053747
  H       3.288118     -0.808322      2.568995
46
Coordinates from ORCA-job file E -1361.056714708445
  C       5.359620     -0.207098     -0.712241
  O       4.617381     -0.422388      0.494375
  C       3.283528     -0.274796      0.502368
  C       2.531468      0.085482     -0.624392
  C       1.147259      0.206630     -0.510031
  O       0.352805      0.542684     -1.553138
  C       0.940111      0.799115     -2.838306
  C       0.506248     -0.016688      0.727719
  S      -1.223346      0.156276      1.063866
  C      -2.165037     -1.165377      0.261162
  C      -1.696274     -1.891398     -0.830764
  C      -2.494631     -2.910222     -1.348080
  C      -3.740179     -3.186716     -0.785621
  C      -4.192245     -2.455061      0.311733
  C      -3.399785     -1.444891      0.851631
  C      -1.932670      1.741486      0.334900
  C      -2.426372      1.872602     -1.118606
  C      -1.866553      3.329466     -1.086333
  C      -1.022699      2.977880      0.176204
  C       1.293447     -0.389075      1.857151
  O       0.619039     -0.615116      2.999800
  C       1.341802     -0.961904      4.191909
  C       2.668135     -0.513931      1.737761
  H       6.399230     -0.383505     -0.446784
  H       5.242119      0.821359     -1.064894
  H       5.055923     -0.914863     -1.488656
  H       3.014976      0.261966     -1.571175
  H       0.108332      1.044481     -3.495298
  H       1.453332     -0.088486     -3.216550
  H       1.630730      1.644664     -2.789257
  H      -0.731319     -1.676850     -1.266481
  H      -2.139756     -3.487827     -2.193594
  H      -4.353868     -3.980549     -1.194927
  H      -5.151679     -2.680633      0.761890
  H      -3.733456     -0.898599      1.726860
  H      -2.735403      1.921856      1.052676
  H      -1.884424      1.234356     -1.810748
  H      -3.498224      1.744314     -1.265613
  H      -1.308259      3.652104     -1.964894
  H      -2.640621      4.067162     -0.873433
  H      -1.025864      3.683615      1.006716
  H       0.006738      2.723095     -0.071065
  H       2.047250     -0.171841      4.460539
  H       0.585315     -1.060254      4.966803
  H       1.865107     -1.912570      4.063877
  H       3.292570     -0.800057      2.570942
46
Coordinates from ORCA-job file E -1361.056738282535
  C       5.358836     -0.220491     -0.714279
  O       4.616906     -0.431305      0.493122
  C       3.283536     -0.279654      0.501966
  C       2.531628      0.079559     -0.625113
  C       1.148008      0.204886     -0.510260
  O       0.353019      0.539883     -1.553368
  C       0.939918      0.787399     -2.840374
  C       0.507315     -0.013395      0.728506
  S      -1.222712      0.158479      1.064018
  C      -2.160439     -1.162789      0.257600
  C      -1.685124     -1.892494     -0.828994
  C      -2.480614     -2.912679     -1.348053
  C      -3.729975     -3.186860     -0.792998
  C      -4.188967     -2.451064      0.298697
  C      -3.399386     -1.439704      0.840535
  C      -1.932481      1.744316      0.337392
  C      -2.429707      1.877908     -1.114579
  C      -1.890341      3.342017     -1.069838
  C      -1.026532      2.983106      0.177368
  C       1.294160     -0.385099      1.858689
  O       0.620705     -0.604531      3.003243
  C       1.343441     -0.953148      4.194492
  C       2.668453     -0.513963      1.738491
  H       6.397957     -0.400769     -0.449459
  H       5.245572      0.808034     -1.068209
  H       5.051788     -0.927777     -1.489813
  H       3.014909      0.253820     -1.572493
  H       0.108476      1.033417     -3.497558
  H       1.449013     -0.103992     -3.215333
  H       1.634569      1.629971     -2.796486
  H      -0.717324     -1.680009     -1.259467
  H      -2.120032     -3.493353     -2.189042
  H      -4.341236     -3.981800     -1.203766
  H      -5.151842     -2.673950      0.742818
  H      -3.739009     -0.890687      1.711763
  H      -2.734707      1.926310      1.055499
  H      -1.875029      1.254332     -1.809904
  H      -3.499039      1.733194     -1.264896
  H      -1.349509      3.687399     -1.950664
  H      -2.672982      4.063166     -0.832665
  H      -1.014143      3.682658      1.012881
  H      -0.002670      2.727498     -0.091976
  H       2.052048     -0.165678      4.462555
  H       0.587538     -1.048303      4.970385
  H       1.863396     -1.905744      4.066909
  H       3.292409     -0.798215      2.572656
46
Coordinates from ORCA-job file E -1361.056742657720
  C       5.356795     -0.228693     -0.716075
  O       4.614728     -0.437865      0.491424
  C       3.281703     -0.282666      0.500731
  C       2.530504      0.079217     -0.625874
  C       1.147315      0.208081     -0.510643
  O       0.352295      0.545085     -1.553325
  C       0.939568      0.791406     -2.840366
  C       0.506380     -0.009239      0.728074
  S      -1.224067      0.163098      1.063308
  C      -2.158076     -1.161214      0.258863
  C      -1.681603     -1.890738     -0.827545
  C      -2.474474     -2.913812     -1.344706
  C      -3.722559     -3.191311     -0.788281
  C      -4.182875     -2.455721      0.302900
  C      -3.395832     -1.441313      0.842869
  C      -1.935704      1.746464      0.335242
  C      -2.427490      1.881505     -1.118650
  C      -1.889958      3.345917     -1.071396
  C      -1.032929      2.988438      0.180947
  C       1.292505     -0.382347      1.858347
  O       0.619046     -0.599874      3.003258
  C       1.340931     -0.954759      4.192952
  C       2.666406     -0.515299      1.737433
  H       6.395355     -0.413236     -0.451941
  H       5.247523      0.800649     -1.068966
  H       5.046744     -0.933846     -1.492360
  H       3.013905      0.253515     -1.573200
  H       0.108666      1.039696     -3.497395
  H       1.446546     -0.101031     -3.215782
  H       1.636530      1.632086     -2.796631
  H      -0.714914     -1.675735     -1.259203
  H      -2.112725     -3.494221     -2.185381
  H      -4.331564     -3.988659     -1.197726
  H      -5.144800     -2.680740      0.748000
  H      -3.736709     -0.892300      1.713602
  H      -2.741717      1.925161      1.050032
  H      -1.871775      1.258103     -1.813257
  H      -3.496604      1.736901     -1.271205
  H      -1.343385      3.690942     -1.948690
  H      -2.674791      4.066343     -0.839192
  H      -1.026438      3.687444      1.016912
  H      -0.007355      2.734422     -0.083905
  H       2.051458     -0.170133      4.464383
  H       0.584920     -1.051030      4.968628
  H       1.858784     -1.908059      4.061982
  H       3.289536     -0.800733      2.571807
46
Coordinates from ORCA-job file E -1361.056743604341
  C       5.355820     -0.230953     -0.716363
  O       4.613681     -0.439574      0.491207
  C       3.280639     -0.283569      0.500371
  C       2.529861      0.079231     -0.626157
  C       1.146795      0.209097     -0.510732
  O       0.351532      0.547272     -1.553054
  C       0.939035      0.793480     -2.840100
  C       0.505697     -0.008433      0.727849
  S      -1.224747      0.166061      1.062522
  C      -2.157067     -1.160164      0.259779
  C      -1.679728     -1.890046     -0.826110
  C      -2.471208     -2.914593     -1.342309
  C      -3.718736     -3.193632     -0.785292
  C      -4.179891     -2.457951      0.305377
  C      -3.394327     -1.441696      0.844168
  C      -1.936368      1.747897      0.333469
  C      -2.427990      1.884100     -1.120618
  C      -1.889344      3.347906     -1.072897
  C      -1.033869      2.990266      0.180431
  C       1.291357     -0.382307      1.858173
  O       0.617705     -0.598951      3.003050
  C       1.339038     -0.957257      4.192028
  C       2.665191     -0.516087      1.736938
  H       6.394144     -0.417164     -0.452459
  H       5.247987      0.798735     -1.068724
  H       5.044576     -0.935177     -1.493016
  H       3.013321      0.253755     -1.573397
  H       0.108376      1.042449     -3.497161
  H       1.445396     -0.099296     -3.215584
  H       1.636780      1.633494     -2.796299
  H      -0.713294     -1.674169     -1.257879
  H      -2.108725     -3.495034     -2.182647
  H      -4.326439     -3.992385     -1.193936
  H      -5.141326     -2.684004      0.751006
  H      -3.736098     -0.892244      1.714267
  H      -2.742917      1.926061      1.047891
  H      -1.874513      1.259634     -1.815965
  H      -3.497536      1.741327     -1.272049
  H      -1.340615      3.692241     -1.949087
  H      -2.674076      4.068863     -0.842075
  H      -1.026932      3.688748      1.016776
  H      -0.008625      2.735015     -0.084692
  H       2.048770     -0.172986      4.466642
  H       0.582611     -1.056641      4.966908
  H       1.857876     -1.909626      4.058268
  H       3.287983     -0.801794      2.571484
