20
Coordinates from ORCA-job file E -345.513483682158
  C      -1.770400     -0.281800      0.190200
  C      -0.842700     -1.017000     -0.804500
  C       0.655400     -0.718100     -0.624000
  C       1.226800     -0.980000      0.761800
  N       1.523300      0.437200      0.992500
  C       0.975300      0.738600     -0.334600
  C      -0.269500      1.637700     -0.249700
  N      -1.308000      1.056700      0.611800
  H      -2.773600     -0.176500     -0.274700
  H      -1.910700     -0.922900      1.089100
  H      -1.009300     -2.112800     -0.726000
  H      -1.124700     -0.717300     -1.837300
  H       1.289600     -1.144300     -1.432300
  H       2.149000     -1.604400      0.729300
  H       0.484000     -1.356000      1.498000
  H       2.562300      0.568500      0.959400
  H       1.744800      1.153400     -1.026500
  H      -0.680900      1.803100     -1.269300
  H       0.026600      2.630000      0.153200
  H      -0.947200      1.005900      1.593500
20
Coordinates from ORCA-job file E -345.522129250446
  C      -1.760846     -0.277642      0.183301
  C      -0.842429     -1.014558     -0.819421
  C       0.643159     -0.727238     -0.615379
  C       1.244617     -1.006968      0.781289
  N       1.542852      0.438599      0.985124
  C       0.973561      0.762652     -0.354336
  C      -0.271538      1.639868     -0.251558
  N      -1.288111      1.049811      0.610559
  H      -2.756183     -0.175554     -0.271513
  H      -1.896757     -0.894757      1.078788
  H      -1.025623     -2.094908     -0.751961
  H      -1.111112     -0.719123     -1.842425
  H       1.237468     -1.163439     -1.424214
  H       2.134127     -1.646369      0.774536
  H       0.531407     -1.389424      1.520656
  H       2.541800      0.596756      0.993475
  H       1.708124      1.196889     -1.045814
  H      -0.694039      1.805526     -1.252851
  H       0.002559      2.620816      0.153880
  H      -0.912935      0.999062      1.547764
20
Coordinates from ORCA-job file E -345.522716555575
  C      -1.763412     -0.277304      0.181146
  C      -0.846994     -1.009145     -0.825381
  C       0.637691     -0.735363     -0.604999
  C       1.250125     -1.006575      0.790307
  N       1.538277      0.443719      0.979064
  C       0.974979      0.761859     -0.367170
  C      -0.273899      1.636037     -0.256931
  N      -1.278726      1.042560      0.617737
  H      -2.758577     -0.168420     -0.271457
  H      -1.900885     -0.894344      1.076297
  H      -1.047063     -2.087338     -0.783023
  H      -1.099690     -0.692087     -1.845798
  H       1.222833     -1.184773     -1.413701
  H       2.138723     -1.648849      0.781393
  H       0.552073     -1.395365      1.541496
  H       2.533536      0.630100      1.029965
  H       1.702719      1.194032     -1.066678
  H      -0.707263      1.799875     -1.253204
  H      -0.003039      2.618305      0.147041
  H      -0.871307      0.973074      1.543795
20
Coordinates from ORCA-job file E -345.522908295720
  C      -1.764628     -0.270611      0.184296
  C      -0.851614     -1.007060     -0.822067
  C       0.635581     -0.739042     -0.604903
  C       1.259224     -1.014829      0.784869
  N       1.518103      0.437965      0.985486
  C       0.974091      0.759882     -0.366755
  C      -0.275670      1.635981     -0.267145
  N      -1.273365      1.047893      0.621102
  H      -2.759543     -0.157007     -0.267564
  H      -1.904471     -0.884815      1.081324
  H      -1.059635     -2.084261     -0.786072
  H      -1.099791     -0.683028     -1.841407
  H       1.213541     -1.190695     -1.417704
  H       2.158160     -1.643491      0.759727
  H       0.576221     -1.425920      1.538890
  H       2.501248      0.659769      1.088873
  H       1.708291      1.187587     -1.062877
  H      -0.713668      1.786345     -1.263592
  H      -0.007031      2.624445      0.123726
  H      -0.834944      0.960890      1.531694
20
Coordinates from ORCA-job file E -345.522954140900
  C      -1.764990     -0.265809      0.186440
  C      -0.853492     -1.006737     -0.818548
  C       0.635004     -0.739949     -0.607112
  C       1.262983     -1.019920      0.780054
  N       1.505962      0.432153      0.988088
  C       0.973148      0.758148     -0.365049
  C      -0.276083      1.636647     -0.272141
  N      -1.271066      1.052467      0.622733
  H      -2.758952     -0.149060     -0.266789
  H      -1.908082     -0.878640      1.083976
  H      -1.061886     -2.083793     -0.778911
  H      -1.103700     -0.685606     -1.838417
  H       1.210059     -1.188958     -1.423441
  H       2.169963     -1.636160      0.743582
  H       0.587283     -1.446021      1.532646
  H       2.480842      0.674161      1.121647
  H       1.713824      1.183081     -1.056002
  H      -0.715242      1.778702     -1.269245
  H      -0.007061      2.628446      0.110300
  H      -0.818417      0.956846      1.526087
20
Coordinates from ORCA-job file E -345.522961648697
  C      -1.765138     -0.263476      0.187404
  C      -0.853981     -1.007150     -0.816103
  C       0.635070     -0.739740     -0.608904
  C       1.265487     -1.023191      0.776471
  N       1.500488      0.428431      0.990254
  C       0.972762      0.757457     -0.363020
  C      -0.275607      1.637645     -0.274033
  N      -1.271999      1.056055      0.620957
  H      -2.758884     -0.147595     -0.266560
  H      -1.908749     -0.874645      1.086000
  H      -1.060896     -2.084307     -0.771147
  H      -1.106959     -0.690910     -1.836828
  H       1.208296     -1.185996     -1.427937
  H       2.176761     -1.632754      0.734624
  H       0.592963     -1.457602      1.527172
  H       2.472097      0.677124      1.133770
  H       1.717242      1.181536     -1.050488
  H      -0.713030      1.777382     -1.272254
  H      -0.006122      2.630278      0.106009
  H      -0.819702      0.961459      1.524513
20
Coordinates from ORCA-job file E -345.522963810553
  C      -1.764996     -0.262873      0.187951
  C      -0.854137     -1.007220     -0.815294
  C       0.635123     -0.739758     -0.609641
  C       1.266428     -1.024665      0.775050
  N       1.498313      0.426833      0.991269
  C       0.972751      0.757048     -0.362252
  C      -0.275129      1.638039     -0.274890
  N      -1.272999      1.057824      0.619217
  H      -2.759161     -0.148692     -0.265560
  H      -1.907445     -0.873044      1.087423
  H      -1.060609     -2.084373     -0.768418
  H      -1.108355     -0.692687     -1.836254
  H       1.207412     -1.184915     -1.429926
  H       2.179453     -1.631378      0.730960
  H       0.595404     -1.462776      1.524948
  H       2.468910      0.677762      1.138034
  H       1.718801      1.180891     -1.048169
  H      -0.711176      1.777675     -1.273719
  H      -0.005321      2.630654      0.104999
  H      -0.823166      0.965655      1.524174
