20
Coordinates from ORCA-job file
  C   -1.76499617166958     -0.26287321567506      0.18795139405831
  C   -0.85413711817832     -1.00722023039864     -0.81529447233370
  C   0.63512268147739     -0.73975790166376     -0.60964128101637
  C   1.26642819850986     -1.02466472134829      0.77504956903998
  N   1.49831304043534      0.42683304449575      0.99126919044819
  C   0.97275098702521      0.75704792942400     -0.36225240179631
  C   -0.27512940198681      1.63803935592204     -0.27488956033036
  N   -1.27299858849594      1.05782367793415      0.61921667472769
  H   -2.75916139294113     -0.14869155180540     -0.26556034094897
  H   -1.90744540571207     -0.87304382488673      1.08742289168775
  H   -1.06060923657944     -2.08437315864523     -0.76841811404764
  H   -1.10835500076555     -0.69268710106853     -1.83625404665887
  H   1.20741231196285     -1.18491526470434     -1.42992623434919
  H   2.17945311185634     -1.63137766983531      0.73095997891513
  H   0.59540385567656     -1.46277610207957      1.52494819641285
  H   2.46891047964317      0.67776170502207      1.13803375034148
  H   1.71880090464220      1.18089105654263     -1.04816942839014
  H   -0.71117582124310      1.77767481939277     -1.27371891343263
  H   -0.00532110366602      2.63065435153021      0.10499922529162
  H   -0.82316632999093      0.96565480184725      1.52417392238116
