17
Coordinates from ORCA-job file
  C   1.42196878282968      0.42443404632325      0.21510075965261
  N   0.81660184234737     -0.64435604473272      1.06005722657753
  C   -0.46968072449147     -0.95625850528517      0.39482357551375
  C   -1.40605917680553      0.22784402533917      0.67262273987279
  N   -0.85533501169336      1.28946945425306     -0.21820320902671
  C   0.33308802382342      0.68147374669253     -0.84966553528928
  C   -0.17374943978057     -0.74375802991194     -1.10242330539264
  H   1.62164260486709      1.32469945646648      0.80949807441921
  H   2.36782581690552      0.10064434447034     -0.24036293144029
  H   1.40848398871451     -1.46769642398043      1.05956103816599
  H   -0.85804952534247     -1.92815487879785      0.70832168060321
  H   -2.44491309511856      0.00173374357103      0.40000267189653
  H   -1.36690906376601      0.50613458173056      1.73105910970979
  H   -0.60180481158812      2.11655283687172      0.31111472927548
  H   0.66819224022671      1.25334553121095     -1.71889753870697
  H   0.59742202085366     -1.41943268834635     -1.48738773022419
  H   -1.05852447198188     -0.76667519587464     -1.74532135560681
