17
Coordinates from ORCA-job file E -306.193683242771
  C       1.390700      0.425400      0.218800
  N       0.823800     -0.634400      1.068100
  C      -0.449700     -0.934800      0.395600
  C      -1.393400      0.244000      0.655000
  N      -0.858600      1.315000     -0.200300
  C       0.301800      0.669500     -0.839700
  C      -0.161400     -0.739400     -1.068900
  H       1.595700      1.335800      0.821500
  H       2.337300      0.090300     -0.264600
  H       1.434900     -1.483000      1.004000
  H      -0.866900     -1.928800      0.667400
  H      -2.429200     -0.005800      0.337700
  H      -1.394600      0.536600      1.729500
  H      -0.545200      2.121900      0.389200
  H       0.646500      1.203200     -1.750700
  H       0.638100     -1.415400     -1.450800
  H      -1.069600     -0.800100     -1.711900
17
Coordinates from ORCA-job file E -306.200352291352
  C       1.417806      0.429343      0.213296
  N       0.823097     -0.642863      1.063479
  C      -0.465530     -0.950234      0.402881
  C      -1.407910      0.231754      0.667044
  N      -0.851850      1.303016     -0.209197
  C       0.325359      0.681069     -0.849727
  C      -0.174689     -0.743482     -1.091366
  H       1.616156      1.329900      0.807403
  H       2.362244      0.107679     -0.245690
  H       1.412660     -1.464041      1.025742
  H      -0.863702     -1.920998      0.705454
  H      -2.437000     -0.006787      0.369730
  H      -1.399926      0.515958      1.724056
  H      -0.560195      2.093662      0.350756
  H       0.662159      1.233712     -1.730193
  H       0.603344     -1.412224     -1.474254
  H      -1.061824     -0.785464     -1.729516
17
Coordinates from ORCA-job file E -306.200598060227
  C       1.420961      0.427094      0.213538
  N       0.818121     -0.642109      1.062261
  C      -0.469205     -0.954335      0.398202
  C      -1.408236      0.228438      0.669806
  N      -0.853639      1.294729     -0.215217
  C       0.331139      0.681301     -0.850724
  C      -0.174887     -0.744360     -1.099188
  H       1.619974      1.328591      0.806004
  H       2.367134      0.103857     -0.241051
  H       1.409908     -1.466051      1.045538
  H      -0.858276     -1.925353      0.712675
  H      -2.442977     -0.001857      0.386208
  H      -1.383146      0.508881      1.727801
  H      -0.580066      2.104771      0.331223
  H       0.665459      1.248343     -1.723051
  H       0.598101     -1.418306     -1.483240
  H      -1.060165     -0.773633     -1.740885
17
Coordinates from ORCA-job file E -306.200635374751
  C       1.421773      0.425193      0.214545
  N       0.816466     -0.643298      1.060620
  C      -0.469966     -0.956090      0.395357
  C      -1.406773      0.227615      0.671821
  N      -0.854818      1.290545     -0.217766
  C       0.333032      0.681298     -0.850322
  C      -0.174199     -0.744228     -1.102388
  H       1.620994      1.326252      0.807987
  H       2.368167      0.101290     -0.239793
  H       1.408270     -1.466639      1.057361
  H      -0.857074     -1.927915      0.711039
  H      -2.444944      0.001252      0.396798
  H      -1.370394      0.506145      1.730312
  H      -0.595511      2.112659      0.316496
  H       0.667441      1.253587     -1.719625
  H       0.596793     -1.420239     -1.487265
  H      -1.059056     -0.767426     -1.745278
17
Coordinates from ORCA-job file E -306.200638432398
  C       1.421947      0.424563      0.214950
  N       0.816476     -0.644034      1.060109
  C      -0.469793     -0.956290      0.394832
  C      -1.406225      0.227734      0.672453
  N      -0.855236      1.289582     -0.218175
  C       0.333142      0.681407     -0.849858
  C      -0.173861     -0.743886     -1.102563
  H       1.621479      1.325037      0.809095
  H       2.367937      0.100708     -0.240175
  H       1.408429     -1.467418      1.059746
  H      -0.857646     -1.928211      0.708924
  H      -2.445017      0.001758      0.399510
  H      -1.367351      0.505974      1.730896
  H      -0.600585      2.115776      0.312137
  H       0.668025      1.253612     -1.718958
  H       0.597116     -1.419751     -1.487566
  H      -1.058637     -0.766562     -1.745456
17
Coordinates from ORCA-job file E -306.200638648486
  C       1.421969      0.424434      0.215101
  N       0.816602     -0.644356      1.060057
  C      -0.469681     -0.956259      0.394824
  C      -1.406059      0.227844      0.672623
  N      -0.855335      1.289469     -0.218203
  C       0.333088      0.681474     -0.849666
  C      -0.173749     -0.743758     -1.102423
  H       1.621643      1.324699      0.809498
  H       2.367826      0.100644     -0.240363
  H       1.408484     -1.467696      1.059561
  H      -0.858050     -1.928155      0.708322
  H      -2.444913      0.001734      0.400003
  H      -1.366909      0.506135      1.731059
  H      -0.601805      2.116553      0.311115
  H       0.668192      1.253346     -1.718898
  H       0.597422     -1.419433     -1.487388
  H      -1.058524     -0.766675     -1.745321
