61
Coordinates from ORCA-job file E -2655.372957053738
  C      -7.229000      1.983100     -1.365300
  O      -6.390100      2.094100     -0.220100
  C      -5.129300      1.490400     -0.096600
  C      -4.414800      1.690600      1.086900
  C      -3.146600      1.111200      1.270700
  O      -2.409300      1.299700      2.451600
  C      -2.842100      2.082000      3.559300
  C      -2.596300      0.319700      0.249100
  S      -1.005900     -0.400300      0.483900
  C      -1.032100     -2.116100      0.846300
  C      -1.230800     -3.057300     -0.171600
  C      -1.246500     -4.422500      0.130300
  C      -1.059500     -4.851500      1.448900
  Cl     -1.077600     -6.564300      1.826600
  C      -0.854000     -3.912200      2.465200
  C      -0.838800     -2.546800      2.164000
  C       0.221500      0.087600     -0.718600
  C       1.644900     -0.093900     -0.222800
  N       1.908300      1.351300     -0.213600
  S       3.067100      1.782200     -1.449800
  O       2.682500      1.183500     -2.776400
  O       3.110700      3.277700     -1.594000
  C       4.659900      1.203900     -0.971100
  C       5.382200      1.888500      0.014300
  C       6.640600      1.427900      0.412900
  C       7.182400      0.266500     -0.158800
  C       8.548300     -0.206300      0.240900
  C       6.462500     -0.411300     -1.154200
  C       5.204200      0.050200     -1.552100
  C       0.533800      1.573300     -0.681800
  C      -3.299300      0.115800     -0.951300
  O      -2.708300     -0.662700     -1.959000
  C      -3.304000     -0.949300     -3.219700
  C      -4.568600      0.701200     -1.115600
  H      -8.159200      2.560900     -1.190200
  H      -7.498500      0.920100     -1.539900
  H      -6.714900      2.399300     -2.257300
  H      -4.860000      2.302400      1.859800
  H      -3.783600      1.666700      3.976000
  H      -2.063000      2.054700      4.348000
  H      -2.993400      3.135900      3.245700
  H      -1.361400     -2.739100     -1.196500
  H      -1.400500     -5.144900     -0.660700
  H      -0.705800     -4.238500      3.486500
  H      -0.679100     -1.826100      2.955900
  H       0.051900     -0.309400     -1.742700
  H       2.268400     -0.675700     -0.938400
  H       1.709300     -0.505800      0.808300
  H       4.971400      2.778800      0.473400
  H       7.190600      1.975000      1.168400
  H       9.309800      0.276100     -0.406300
  H       8.757500      0.051900      1.300900
  H       8.628200     -1.308900      0.134600
  H       6.873700     -1.298200     -1.620300
  H       4.657600     -0.493300     -2.311600
  H       0.455800      2.046200     -1.686900
  H      -0.049700      2.132700      0.082300
  H      -4.257500     -1.499900     -3.074900
  H      -3.484700     -0.007500     -3.779600
  H      -2.613100     -1.585800     -3.809600
  H      -5.115800      0.546600     -2.033300
61
Coordinates from ORCA-job file E -2655.404702340641
  C      -7.116708      1.936980     -1.370255
  O      -6.320259      2.075086     -0.199285
  C      -5.095164      1.483068     -0.088663
  C      -4.400312      1.690158      1.103391
  C      -3.143618      1.116462      1.288877
  O      -2.421505      1.290313      2.438766
  C      -2.912203      2.082830      3.514949
  C      -2.579912      0.325823      0.271150
  S      -0.987380     -0.383742      0.530984
  C      -1.011175     -2.118747      0.853282
  C      -1.211402     -3.051382     -0.173229
  C      -1.219191     -4.412296      0.119768
  C      -1.025075     -4.839658      1.435680
  Cl     -1.034335     -6.546126      1.802952
  C      -0.820075     -3.911718      2.459054
  C      -0.810737     -2.550176      2.168189
  C       0.223558      0.094668     -0.709455
  C       1.672617     -0.105489     -0.235663
  N       1.928809      1.362007     -0.254872
  S       3.051674      1.807239     -1.513062
  O       2.652681      1.166420     -2.801779
  O       3.074958      3.290218     -1.601782
  C       4.630975      1.206781     -1.002973
  C       5.338611      1.887172     -0.007933
  C       6.580655      1.411330      0.404330
  C       7.122478      0.246123     -0.158239
  C       8.482333     -0.243438      0.262717
  C       6.405849     -0.420944     -1.162030
  C       5.162261      0.049382     -1.578845
  C       0.527102      1.601541     -0.690911
  C      -3.279304      0.125295     -0.931509
  O      -2.673773     -0.635738     -1.898996
  C      -3.299813     -0.892766     -3.152287
  C      -4.538093      0.700503     -1.111023
  H      -8.039208      2.502991     -1.209439
  H      -7.372408      0.881022     -1.544289
  H      -6.594389      2.348958     -2.246697
  H      -4.853221      2.299897      1.873507
  H      -3.851164      1.666232      3.907892
  H      -2.157070      2.065200      4.306978
  H      -3.066189      3.122641      3.192083
  H      -1.351028     -2.725267     -1.195033
  H      -1.373405     -5.134524     -0.671848
  H      -0.667002     -4.246241      3.477105
  H      -0.650962     -1.831852      2.963227
  H       0.024089     -0.305966     -1.709139
  H       2.270319     -0.691311     -0.946383
  H       1.767618     -0.507357      0.783498
  H       4.928686      2.784005      0.440947
  H       7.126398      1.952277      1.168077
  H       9.256131      0.223129     -0.363799
  H       8.683377      0.009276      1.312367
  H       8.557836     -1.333888      0.157363
  H       6.815092     -1.312063     -1.622902
  H       4.617684     -0.481659     -2.350077
  H       0.424663      2.071381     -1.678450
  H      -0.027516      2.165244      0.072235
  H      -4.246833     -1.433336     -3.008872
  H      -3.477889      0.046049     -3.696351
  H      -2.619671     -1.518318     -3.739400
  H      -5.078465      0.546402     -2.033795
61
Coordinates from ORCA-job file E -2655.418862484191
  C      -7.040470      1.905656     -1.386010
  O      -6.267399      2.058092     -0.196529
  C      -5.066355      1.475505     -0.092277
  C      -4.394724      1.694427      1.115029
  C      -3.143142      1.131258      1.319934
  O      -2.433773      1.294504      2.450825
  C      -2.964409      2.094064      3.509279
  C      -2.557290      0.337865      0.306098
  S      -0.964371     -0.350187      0.611447
  C      -0.988679     -2.109901      0.869050
  C      -1.186523     -3.022948     -0.174380
  C      -1.187935     -4.384694      0.097818
  C      -0.992329     -4.824925      1.408718
  Cl     -0.994983     -6.531166      1.749423
  C      -0.791601     -3.916958      2.448304
  C      -0.786432     -2.553777      2.178474
  C       0.219761      0.107732     -0.682187
  C       1.691386     -0.109318     -0.247701
  N       1.945206      1.370908     -0.304388
  S       3.025408      1.828013     -1.587945
  O       2.620254      1.144156     -2.834146
  O       3.027008      3.292517     -1.617707
  C       4.592254      1.205389     -1.044303
  C       5.283113      1.881569     -0.037217
  C       6.509391      1.388925      0.391327
  C       7.053666      0.221429     -0.163440
  C       8.403597     -0.284204      0.281384
  C       6.343934     -0.433770     -1.178567
  C       5.114432      0.046202     -1.617994
  C       0.517211      1.626806     -0.691114
  C      -3.243371      0.130736     -0.908166
  O      -2.607938     -0.621725     -1.833583
  C      -3.234727     -0.872127     -3.093991
  C      -4.497994      0.694949     -1.111749
  H      -7.957612      2.467584     -1.225262
  H      -7.289481      0.854231     -1.561455
  H      -6.514274      2.317486     -2.252984
  H      -4.866519      2.302752      1.872160
  H      -3.902444      1.675493      3.885817
  H      -2.219917      2.077650      4.302277
  H      -3.119380      3.126135      3.181487
  H      -1.331745     -2.678124     -1.189302
  H      -1.339164     -5.099710     -0.700926
  H      -0.637911     -4.269802      3.460087
  H      -0.629562     -1.844454      2.982458
  H      -0.023940     -0.304892     -1.657391
  H       2.259461     -0.706200     -0.960461
  H       1.827196     -0.495168      0.764509
  H       4.872223      2.783308      0.400927
  H       7.049240      1.921354      1.166284
  H       9.194375      0.170576     -0.324050
  H       8.593578     -0.036142      1.327852
  H       8.475532     -1.368606      0.173161
  H       6.754260     -1.328060     -1.634121
  H       4.575020     -0.468717     -2.403954
  H       0.380719      2.091789     -1.667526
  H      -0.000288      2.202164      0.078153
  H      -4.176845     -1.412241     -2.962437
  H      -3.408277      0.061064     -3.637213
  H      -2.543046     -1.491197     -3.661927
  H      -5.023369      0.536828     -2.039781
61
Coordinates from ORCA-job file E -2655.424138422917
  C      -6.986493      1.904622     -1.429817
  O      -6.234022      2.058241     -0.222390
  C      -5.036351      1.476633     -0.095498
  C      -4.398167      1.704260      1.131755
  C      -3.151265      1.148793      1.375113
  O      -2.465040      1.310524      2.518392
  C      -3.023556      2.112537      3.567084
  C      -2.533198      0.351763      0.375033
  S      -0.944150     -0.312949      0.745431
  C      -0.997988     -2.093310      0.908677
  C      -1.199646     -2.959374     -0.171494
  C      -1.217286     -4.330220      0.047826
  C      -1.037016     -4.821767      1.342837
  Cl     -1.061558     -6.539131      1.615278
  C      -0.834448     -3.959706      2.419622
  C      -0.810327     -2.586929      2.202211
  C       0.198900      0.096191     -0.613543
  C       1.686952     -0.140264     -0.237643
  N       1.955146      1.337549     -0.354379
  S       2.996835      1.774949     -1.673332
  O       2.594682      1.024441     -2.872178
  O       2.969408      3.230200     -1.708035
  C       4.569008      1.175345     -1.100532
  C       5.242465      1.883248     -0.104023
  C       6.470723      1.411819      0.341037
  C       7.037025      0.243396     -0.189046
  C       8.389929     -0.236387      0.275589
  C       6.340037     -0.440292     -1.193570
  C       5.107673      0.014082     -1.652428
  C       0.509203      1.613443     -0.676214
  C      -3.189327      0.134346     -0.857757
  O      -2.520374     -0.620871     -1.755691
  C      -3.112683     -0.875531     -3.037487
  C      -4.439706      0.694177     -1.098350
  H      -7.902318      2.468790     -1.276226
  H      -7.233524      0.854941     -1.608870
  H      -6.446260      2.317256     -2.285744
  H      -4.898054      2.313915      1.868857
  H      -3.966757      1.691912      3.923344
  H      -2.290781      2.092381      4.369450
  H      -3.172823      3.142692      3.235778
  H      -1.339080     -2.571025     -1.170828
  H      -1.370433     -5.014515     -0.776973
  H      -0.692618     -4.355978      3.416915
  H      -0.650546     -1.909747      3.032880
  H      -0.106599     -0.340622     -1.558180
  H       2.214575     -0.766335     -0.954770
  H       1.869835     -0.497269      0.776350
  H       4.816842      2.790089      0.308326
  H       6.999961      1.964226      1.109950
  H       9.181544      0.215437     -0.329906
  H       8.572066      0.035220      1.316577
  H       8.480390     -1.320094      0.185943
  H       6.767141     -1.337288     -1.628910
  H       4.580873     -0.513683     -2.438196
  H       0.331552      2.060035     -1.653365
  H       0.042932      2.220376      0.099798
  H      -4.055454     -1.417071     -2.932518
  H      -3.270155      0.054657     -3.587654
  H      -2.398125     -1.493559     -3.575645
  H      -4.939568      0.531532     -2.038762
61
Coordinates from ORCA-job file E -2655.426229694433
  C      -6.938890      2.063156     -1.378315
  O      -6.175361      2.166417     -0.169151
  C      -4.996071      1.541500     -0.060443
  C      -4.348703      1.723406      1.170127
  C      -3.120428      1.124776      1.398526
  O      -2.423559      1.237254      2.542765
  C      -2.955795      2.033811      3.613823
  C      -2.524072      0.327356      0.380496
  S      -0.944770     -0.362494      0.775372
  C      -1.039804     -2.154553      0.911386
  C      -1.217963     -3.017425     -0.173682
  C      -1.256648     -4.388217      0.046890
  C      -1.121782     -4.881381      1.346790
  Cl     -1.172522     -6.599313      1.616605
  C      -0.941690     -4.022581      2.429210
  C      -0.894180     -2.649697      2.210251
  C       0.176988     -0.022674     -0.631526
  C       1.670607     -0.272343     -0.288776
  N       1.955587      1.193186     -0.483901
  S       2.989767      1.584347     -1.820486
  O       2.658628      0.711751     -2.951901
  O       2.880024      3.028181     -1.940740
  C       4.576854      1.108366     -1.162612
  C       5.173797      1.914272     -0.192142
  C       6.413832      1.544845      0.312709
  C       7.070221      0.390006     -0.137259
  C       8.434202      0.023965      0.391530
  C       6.446147     -0.391852     -1.117463
  C       5.203003     -0.042609     -1.637194
  C       0.504306      1.484530     -0.771484
  C      -3.193976      0.155580     -0.855485
  O      -2.558204     -0.596768     -1.781648
  C      -3.170951     -0.782412     -3.070145
  C      -4.426592      0.762182     -1.079612
  H      -7.832675      2.655797     -1.202471
  H      -7.221532      1.026125     -1.576302
  H      -6.387851      2.476370     -2.226787
  H      -4.832499      2.333992      1.917666
  H      -3.909467      1.631652      3.962630
  H      -2.217542      1.970295      4.409014
  H      -3.074860      3.074304      3.304159
  H      -1.326415     -2.628312     -1.174256
  H      -1.390696     -5.073327     -0.780489
  H      -0.833103     -4.421750      3.429465
  H      -0.748531     -1.973646      3.044517
  H      -0.176784     -0.496836     -1.538351
  H       2.168962     -0.938883     -0.991303
  H       1.884588     -0.584530      0.734285
  H       4.680825      2.815711      0.150667
  H       6.884999      2.169514      1.064250
  H       9.216803      0.491956     -0.214283
  H       8.568382      0.364602      1.419627
  H       8.598142     -1.054557      0.362746
  H       6.943057     -1.281865     -1.488881
  H       4.735725     -0.636646     -2.412946
  H       0.302550      1.894259     -1.760675
  H       0.077542      2.139107     -0.010997
  H      -4.132961     -1.290118     -2.974653
  H      -3.293983      0.172919     -3.584293
  H      -2.481423     -1.408143     -3.632202
  H      -4.933260      0.637544     -2.022555
61
Coordinates from ORCA-job file E -2655.426948144837
  C      -6.885872      2.153778     -1.367938
  O      -6.117686      2.260610     -0.161777
  C      -4.955667      1.600305     -0.039928
  C      -4.297426      1.785666      1.183435
  C      -3.090358      1.148681      1.419118
  O      -2.389614      1.260992      2.565484
  C      -2.891404      2.101906      3.617810
  C      -2.520364      0.314761      0.414755
  S      -0.956782     -0.408691      0.827474
  C      -1.114648     -2.203592      0.895898
  C      -1.329460     -3.016436     -0.219406
  C      -1.408875     -4.393390     -0.050512
  C      -1.280740     -4.941793      1.227815
  Cl     -1.383554     -6.667966      1.430074
  C      -1.069030     -4.131456      2.341685
  C      -0.979826     -2.752918      2.174162
  C       0.154640     -0.102052     -0.599470
  C       1.643164     -0.401428     -0.292232
  N       1.971814      1.048355     -0.500770
  S       3.003502      1.416574     -1.843029
  O       2.728845      0.471461     -2.931910
  O       2.818855      2.847744     -2.041697
  C       4.613114      1.059605     -1.160440
  C       5.154805      1.932765     -0.215678
  C       6.416920      1.662686      0.298119
  C       7.150050      0.542485     -0.120759
  C       8.535366      0.286347      0.414391
  C       6.579789     -0.309792     -1.074488
  C       5.316485     -0.058978     -1.603549
  C       0.528847      1.389591     -0.755649
  C      -3.202627      0.136324     -0.810675
  O      -2.608298     -0.671382     -1.722347
  C      -3.234642     -0.873092     -3.002155
  C      -4.416488      0.779740     -1.041055
  H      -7.761746      2.777649     -1.206082
  H      -7.199207      1.120312     -1.540772
  H      -6.321081      2.530796     -2.225146
  H      -4.759863      2.426836      1.919414
  H      -3.860120      1.741849      3.973103
  H      -2.156004      2.030727      4.415955
  H      -2.971722      3.138264      3.280640
  H      -1.440911     -2.585797     -1.203853
  H      -1.570383     -5.041564     -0.902375
  H      -0.967122     -4.572555      3.324870
  H      -0.806733     -2.114873      3.032777
  H      -0.243651     -0.569560     -1.491920
  H       2.102561     -1.085684     -1.006548
  H       1.873297     -0.717479      0.727402
  H       4.603403      2.810462      0.098041
  H       6.845643      2.338844      1.030103
  H       9.284096      0.789484     -0.207422
  H       8.647488      0.666576      1.432079
  H       8.773789     -0.779361      0.415463
  H       7.135618     -1.175298     -1.419061
  H       4.891085     -0.702572     -2.363570
  H       0.318212      1.801809     -1.743403
  H       0.144699      2.066461      0.009627
  H      -4.214464     -1.341995     -2.884917
  H      -3.324084      0.071990     -3.542992
  H      -2.571834     -1.541119     -3.548554
  H      -4.933802      0.648489     -1.977519
61
Coordinates from ORCA-job file E -2655.427629923175
  C      -6.807823      2.329815     -1.339595
  O      -6.055053      2.363740     -0.119730
  C      -4.913539      1.664596     -0.010918
  C      -4.263308      1.779723      1.224644
  C      -3.078476      1.097098      1.442873
  O      -2.390498      1.140962      2.604181
  C      -2.877116      1.958542      3.681628
  C      -2.519686      0.290320      0.410386
  S      -0.974736     -0.484958      0.811888
  C      -1.183234     -2.275849      0.915221
  C      -1.405176     -3.105747     -0.185195
  C      -1.517776     -4.476922      0.012206
  C      -1.416707     -5.002250      1.302462
  Cl     -1.561794     -6.721789      1.538101
  C      -1.199441     -4.173800      2.402013
  C      -1.076167     -2.801761      2.205932
  C       0.135730     -0.233522     -0.630642
  C       1.617599     -0.564056     -0.337865
  N       1.977825      0.868332     -0.584057
  S       3.019782      1.196873     -1.924955
  O       2.828035      0.163940     -2.951109
  O       2.751570      2.598006     -2.234380
  C       4.638436      0.992261     -1.201235
  C       5.104745      1.952835     -0.301985
  C       6.376891      1.803918      0.235788
  C       7.193581      0.718571     -0.116040
  C       8.587199      0.593520      0.442478
  C       6.697235     -0.224712     -1.024091
  C       5.425706     -0.094553     -1.576645
  C       0.545090      1.241731     -0.832420
  C      -3.193189      0.182066     -0.824805
  O      -2.612948     -0.600934     -1.768202
  C      -3.224196     -0.726771     -3.064350
  C      -4.386151      0.870358     -1.038046
  H      -7.668594      2.971300     -1.165022
  H      -7.146896      1.313298     -1.559367
  H      -6.218530      2.725894     -2.171670
  H      -4.715792      2.402583      1.982112
  H      -3.861831      1.617272      4.011063
  H      -2.154995      1.834317      4.485581
  H      -2.918833      3.008486      3.380715
  H      -1.501606     -2.694658     -1.180287
  H      -1.684892     -5.138825     -0.827958
  H      -1.118932     -4.596332      3.395281
  H      -0.896809     -2.150649      3.053430
  H      -0.293341     -0.715147     -1.502152
  H       2.049955     -1.273159     -1.045883
  H       1.855174     -0.864149      0.685426
  H       4.488145      2.804319     -0.042216
  H       6.747612      2.547376      0.933237
  H       9.304541      1.115825     -0.200727
  H       8.660547      1.036093      1.438562
  H       8.902808     -0.450414      0.503105
  H       7.317071     -1.066438     -1.313586
  H       5.055090     -0.808200     -2.301944
  H       0.333879      1.633129     -1.828872
  H       0.188263      1.951664     -0.083438
  H      -4.216811     -1.176208     -2.981989
  H      -3.281351      0.245252     -3.560384
  H      -2.570083     -1.385410     -3.632272
  H      -4.896201      0.793297     -1.984180
61
Coordinates from ORCA-job file E -2655.427809495707
  C      -6.691273      2.532852     -1.273232
  O      -5.920012      2.517553     -0.064593
  C      -4.818258      1.756416      0.022039
  C      -4.143993      1.827548      1.248805
  C      -2.995531      1.078933      1.444050
  O      -2.291518      1.071612      2.595716
  C      -2.713056      1.909140      3.684927
  C      -2.496292      0.251179      0.398333
  S      -0.984491     -0.603366      0.769744
  C      -1.269449     -2.383987      0.884487
  C      -1.576019     -3.198973     -0.206512
  C      -1.741240     -4.564202     -0.005615
  C      -1.608844     -5.097051      1.278489
  Cl     -1.819304     -6.808917      1.517947
  C      -1.309328     -4.282141      2.369093
  C      -1.133562     -2.916612      2.169212
  C       0.132619     -0.396947     -0.678224
  C       1.609010     -0.746260     -0.381560
  N       1.990076      0.673350     -0.661995
  S       3.053593      0.964937     -1.991050
  O       2.973491     -0.155889     -2.936138
  O       2.699641      2.315633     -2.419434
  C       4.659180      0.940366     -1.213210
  C       5.022444      1.994726     -0.373929
  C       6.286962      1.987550      0.199914
  C       7.197246      0.951131     -0.057692
  C       8.580913      0.978769      0.538444
  C       6.802277     -0.089440     -0.907125
  C       5.539281     -0.102480     -1.493149
  C       0.565256      1.065891     -0.919540
  C      -3.196561      0.182807     -0.824021
  O      -2.682192     -0.631655     -1.776823
  C      -3.321729     -0.711752     -3.062591
  C      -4.352263      0.937767     -1.015752
  H      -7.512617      3.219327     -1.082381
  H      -7.089160      1.538434     -1.493843
  H      -6.093648      2.901398     -2.111577
  H      -4.550854      2.468153      2.016802
  H      -3.710163      1.623537      4.028739
  H      -1.986867      1.738199      4.476115
  H      -2.698429      2.961367      3.390562
  H      -1.698703     -2.782344     -1.196180
  H      -1.973667     -5.215479     -0.838580
  H      -1.206998     -4.710459      3.357825
  H      -0.890293     -2.276469      3.009121
  H      -0.310283     -0.892451     -1.533559
  H       2.027932     -1.474095     -1.078193
  H       1.844825     -1.030187      0.646497
  H       4.332395      2.808035     -0.185974
  H       6.577890      2.804232      0.851863
  H       9.271110      1.513679     -0.123429
  H       8.591576      1.491593      1.502520
  H       8.977796     -0.028861      0.677974
  H       7.494007     -0.896821     -1.121860
  H       5.243430     -0.895168     -2.168928
  H       0.360380      1.435146     -1.924935
  H       0.219415      1.802084     -0.191186
  H      -4.338264     -1.100261     -2.965751
  H      -3.327719      0.264669     -3.552550
  H      -2.718803     -1.405678     -3.644613
  H      -4.881360      0.890034     -1.953395
61
Coordinates from ORCA-job file E -2655.427778184444
  C      -6.572704      2.644700     -1.298159
  O      -5.853929      2.560613     -0.060599
  C      -4.762475      1.786427      0.032328
  C      -4.140388      1.786687      1.289391
  C      -3.005592      1.019068      1.493260
  O      -2.353199      0.942052      2.671690
  C      -2.812081      1.727424      3.783736
  C      -2.469300      0.243569      0.426949
  S      -0.976622     -0.640850      0.800981
  C      -1.315495     -2.409097      0.939628
  C      -1.726029     -3.208395     -0.128804
  C      -1.929434     -4.566924      0.082407
  C      -1.728597     -5.108119      1.354035
  Cl     -1.985994     -6.811267      1.606914
  C      -1.325112     -4.307924      2.422089
  C      -1.113370     -2.949103      2.211978
  C       0.116800     -0.493919     -0.673394
  C       1.591230     -0.866702     -0.398028
  N       1.994095      0.536867     -0.722598
  S       3.059585      0.780318     -2.058541
  O       3.040663     -0.405496     -2.923004
  O       2.655070      2.081443     -2.586992
  C       4.658945      0.884246     -1.276010
  C       4.963766      2.001500     -0.497313
  C       6.220267      2.087233      0.087055
  C       7.179283      1.079706     -0.098966
  C       8.552408      1.205083      0.509662
  C       6.842617     -0.025547     -0.889500
  C       5.588120     -0.132020     -1.484393
  C       0.574203      0.952206     -0.966971
  C      -3.120268      0.240445     -0.823734
  O      -2.573084     -0.532941     -1.791624
  C      -3.152349     -0.535413     -3.107740
  C      -4.260319      1.016001     -1.025607
  H      -7.397178      3.327519     -1.107669
  H      -6.967592      1.666759     -1.587061
  H      -5.937685      3.050662     -2.090441
  H      -4.575651      2.388893      2.072713
  H      -3.824621      1.435191      4.072550
  H      -2.120651      1.509402      4.594248
  H      -2.776947      2.793144      3.544862
  H      -1.900162     -2.785178     -1.107675
  H      -2.243369     -5.206144     -0.733010
  H      -1.172961     -4.742328      3.401686
  H      -0.791962     -2.320472      3.034054
  H      -0.355056     -1.005307     -1.503855
  H       1.981574     -1.615839     -1.088706
  H       1.841705     -1.133583      0.631071
  H       4.233854      2.789736     -0.359568
  H       6.465328      2.952673      0.693342
  H       9.226337      1.732740     -0.174266
  H       8.526509      1.771314      1.442998
  H       8.992333      0.226375      0.711450
  H       7.571703     -0.812941     -1.047250
  H       5.333243     -0.980808     -2.106480
  H       0.359690      1.295860     -1.978920
  H       0.253718      1.716702     -0.256123
  H      -4.176858     -0.913956     -3.079541
  H      -3.124494      0.465565     -3.544453
  H      -2.531324     -1.205890     -3.698281
  H      -4.750194      1.018141     -1.985702
61
Coordinates from ORCA-job file E -2655.427987825912
  C      -6.673171      2.548318     -1.288775
  O      -5.923645      2.507523     -0.067287
  C      -4.817690      1.753754      0.018921
  C      -4.169488      1.793445      1.262094
  C      -3.017441      1.050202      1.459787
  O      -2.336177      1.012564      2.622697
  C      -2.781763      1.816989      3.726575
  C      -2.490554      0.258895      0.400626
  S      -0.975559     -0.590603      0.765665
  C      -1.264987     -2.366002      0.916519
  C      -1.687541     -3.179286     -0.137033
  C      -1.856871     -4.540729      0.085246
  C      -1.606947     -5.071773      1.352610
  Cl     -1.821239     -6.778387      1.620219
  C      -1.188787     -4.258694      2.404852
  C      -1.013007     -2.896342      2.184090
  C       0.118375     -0.410308     -0.703917
  C       1.594242     -0.785573     -0.434294
  N       1.993228      0.628932     -0.719035
  S       3.065602      0.916242     -2.042021
  O       3.012131     -0.220635     -2.967125
  O       2.703141      2.256423     -2.495757
  C       4.665074      0.925197     -1.252769
  C       5.003145      1.984350     -0.409348
  C       6.257973      1.991653      0.185115
  C       7.182380      0.963068     -0.053411
  C       8.554580      1.003613      0.569067
  C       6.812738     -0.081940     -0.908325
  C       5.559777     -0.109395     -1.515173
  C       0.571923      1.045247     -0.959197
  C      -3.168748      0.215395     -0.836785
  O      -2.631564     -0.572906     -1.798259
  C      -3.242457     -0.616173     -3.099774
  C      -4.325215      0.967696     -1.032249
  H      -7.503611      3.222825     -1.094962
  H      -7.059277      1.557466     -1.543280
  H      -6.064593      2.943631     -2.106667
  H      -4.598109      2.406550      2.040706
  H      -3.781438      1.514789      4.047865
  H      -2.066822      1.630347      4.524365
  H      -2.771540      2.877069      3.462055
  H      -1.896983     -2.763873     -1.111894
  H      -2.181141     -5.190053     -0.718024
  H      -0.999042     -4.685487      3.381261
  H      -0.683641     -2.256922      2.994563
  H      -0.347521     -0.903705     -1.547975
  H       1.989697     -1.513807     -1.143882
  H       1.842726     -1.080050      0.587565
  H       4.300354      2.788545     -0.229449
  H       6.528865      2.811675      0.841534
  H       9.251916      1.545897     -0.078798
  H       8.541470      1.514437      1.534064
  H       8.957911     -0.000350      0.715475
  H       7.515078     -0.884023     -1.108276
  H       5.280165     -0.911381     -2.186792
  H       0.361014      1.413645     -1.963047
  H       0.244909      1.789505     -0.230249
  H      -4.259282     -1.010826     -3.038149
  H      -3.242869      0.374144     -3.560733
  H      -2.624300     -1.290021     -3.689485
  H      -4.835392      0.939313     -1.981239
61
Coordinates from ORCA-job file E -2655.428050800657
  C      -6.701156      2.516359     -1.278719
  O      -5.942851      2.485591     -0.062403
  C      -4.830788      1.739736      0.018837
  C      -4.175256      1.787422      1.257375
  C      -3.016389      1.053649      1.449895
  O      -2.328689      1.022475      2.609210
  C      -2.774114      1.825073      3.714543
  C      -2.489215      0.264127      0.389397
  S      -0.963839     -0.569216      0.749747
  C      -1.238457     -2.345297      0.911985
  C      -1.697394     -3.161619     -0.124107
  C      -1.859723     -4.522322      0.107763
  C      -1.565695     -5.050084      1.367266
  Cl     -1.772092     -6.755674      1.647503
  C      -1.111100     -4.234240      2.401866
  C      -0.944130     -2.872062      2.172054
  C       0.118735     -0.388558     -0.728001
  C       1.597409     -0.758667     -0.466112
  N       1.987882      0.659077     -0.743973
  S       3.069449      0.963437     -2.054813
  O       3.011691     -0.155686     -3.000207
  O       2.721256      2.315024     -2.484412
  C       4.663418      0.941692     -1.253508
  C       5.010374      1.985136     -0.394220
  C       6.258907      1.964360      0.213417
  C       7.168444      0.923086     -0.027270
  C       8.533761      0.932005      0.611379
  C       6.790545     -0.105330     -0.898383
  C       5.543428     -0.105053     -1.518055
  C       0.565645      1.069034     -0.985946
  C      -3.175681      0.211638     -0.843919
  O      -2.641916     -0.578666     -1.806804
  C      -3.257532     -0.627001     -3.106215
  C      -4.338806      0.955245     -1.033741
  H      -7.534916      3.185842     -1.081563
  H      -7.082130      1.521751     -1.526606
  H      -6.101165      2.912596     -2.102556
  H      -4.604270      2.398133      2.037807
  H      -3.768874      1.514428      4.043209
  H      -2.052272      1.646504      4.508027
  H      -2.775447      2.884706      3.447903
  H      -1.939396     -2.747705     -1.092494
  H      -2.212320     -5.173656     -0.681805
  H      -0.888516     -4.658364      3.372529
  H      -0.590678     -2.229828      2.970000
  H      -0.349483     -0.885925     -1.568496
  H       1.993373     -1.480196     -1.182554
  H       1.852164     -1.058759      0.552661
  H       4.319871      2.799501     -0.212703
  H       6.536651      2.772165      0.882019
  H       9.247716      1.471476     -0.020566
  H       8.517652      1.429306      1.583507
  H       8.918359     -0.080705      0.748244
  H       7.481680     -0.916479     -1.100889
  H       5.258019     -0.894071     -2.202376
  H       0.353788      1.434641     -1.991054
  H       0.234312      1.812781     -0.258313
  H      -4.272757     -1.025250     -3.040190
  H      -3.263379      0.362227     -3.569526
  H      -2.638936     -1.299913     -3.696534
  H      -4.855166      0.920201     -1.979015
61
Coordinates from ORCA-job file E -2655.428125030664
  C      -6.719413      2.497157     -1.255847
  O      -5.949777      2.469391     -0.046728
  C      -4.832992      1.728778      0.023500
  C      -4.168115      1.775575      1.256379
  C      -3.004068      1.047104      1.437326
  O      -2.307381      1.014877      2.591236
  C      -2.746225      1.812923      3.702450
  C      -2.479933      0.264512      0.370134
  S      -0.942107     -0.552263      0.718067
  C      -1.205888     -2.325781      0.908412
  C      -1.748561     -3.144068     -0.085169
  C      -1.908584     -4.501001      0.168239
  C      -1.527982     -5.023802      1.406818
  Cl     -1.732840     -6.724767      1.714920
  C      -0.989495     -4.206374      2.398681
  C      -0.827619     -2.846936      2.148392
  C       0.115606     -0.387467     -0.779065
  C       1.599281     -0.748406     -0.531155
  N       1.974712      0.672685     -0.804581
  S       3.077427      1.001929     -2.088319
  O       3.031371     -0.095430     -3.058648
  O       2.740462      2.363863     -2.491898
  C       4.656652      0.956183     -1.257565
  C       4.998388      1.985845     -0.379877
  C       6.233232      1.942928      0.254290
  C       7.134810      0.892844      0.022192
  C       8.485524      0.876999      0.691184
  C       6.763467     -0.120812     -0.868733
  C       5.529932     -0.098226     -1.515013
  C       0.552637      1.069869     -1.057563
  C      -3.177674      0.210670     -0.857236
  O      -2.651399     -0.576704     -1.827628
  C      -3.268789     -0.612678     -3.126722
  C      -4.345627      0.949640     -1.035216
  H      -7.554711      3.162362     -1.050626
  H      -7.097710      1.500706     -1.500820
  H      -6.129129      2.896708     -2.085143
  H      -4.594458      2.380063      2.043183
  H      -3.735615      1.495391      4.040857
  H      -2.015396      1.637692      4.488477
  H      -2.757159      2.872979      3.437645
  H      -2.054689     -2.731782     -1.036582
  H      -2.326195     -5.153325     -0.588086
  H      -0.701687     -4.626464      3.353871
  H      -0.415402     -2.202368      2.915609
  H      -0.360911     -0.899490     -1.605949
  H       1.992807     -1.461805     -1.257552
  H       1.867038     -1.054603      0.482571
  H       4.315578      2.808296     -0.205737
  H       6.506847      2.740529      0.936707
  H       9.219444      1.418677      0.084477
  H       8.452327      1.358678      1.670839
  H       8.855857     -0.142060      0.820479
  H       7.449518     -0.937358     -1.066826
  H       5.251384     -0.874560     -2.216406
  H       0.341217      1.417884     -2.069506
  H       0.212069      1.821792     -0.342576
  H      -4.284354     -1.010743     -3.063348
  H      -3.274712      0.380752     -3.581097
  H      -2.651205     -1.280815     -3.723494
  H      -4.869786      0.913904     -1.976119
61
Coordinates from ORCA-job file E -2655.428176683160
  C      -6.737632      2.474980     -1.209295
  O      -5.945789      2.454532     -0.014667
  C      -4.824671      1.718520      0.036935
  C      -4.137822      1.769424      1.256917
  C      -2.967347      1.046217      1.416945
  O      -2.250698      1.016061      2.558488
  C      -2.669953      1.815187      3.676341
  C      -2.458158      0.265428      0.341205
  S      -0.904343     -0.532537      0.663669
  C      -1.159140     -2.300414      0.895391
  C      -1.809532     -3.118858     -0.031735
  C      -1.965512     -4.469994      0.250591
  C      -1.475290     -4.987430      1.452698
  Cl     -1.678791     -6.681176      1.798981
  C      -0.830235     -4.170193      2.378552
  C      -0.673706     -2.815341      2.100214
  C       0.107828     -0.397323     -0.866794
  C       1.599218     -0.746702     -0.645235
  N       1.952114      0.680303     -0.904167
  S       3.088338      1.054715     -2.139439
  O       3.070766     -0.004691     -3.151429
  O       2.761241      2.430462     -2.499820
  C       4.640485      0.976941     -1.259773
  C       4.962998      1.984496     -0.349950
  C       6.173149      1.913301      0.327997
  C       7.069666      0.856250      0.108420
  C       8.393980      0.809142      0.827076
  C       6.719518     -0.134069     -0.816770
  C       5.510899     -0.082571     -1.507181
  C       0.531766      1.057605     -1.179459
  C      -3.178924      0.206275     -0.872187
  O      -2.670687     -0.583555     -1.850983
  C      -3.299203     -0.609572     -3.144896
  C      -4.353358      0.939495     -1.029157
  H      -7.571978      3.137290     -0.991203
  H      -7.115978      1.475987     -1.443908
  H      -6.164589      2.873984     -2.050895
  H      -4.552690      2.370831      2.052206
  H      -3.650663      1.493881      4.035933
  H      -1.922609      1.645629      4.447940
  H      -2.691475      2.874433      3.408952
  H      -2.195169     -2.707834     -0.955045
  H      -2.465705     -5.122054     -0.454110
  H      -0.459532     -4.585911      3.306732
  H      -0.184603     -2.169560      2.819791
  H      -0.386541     -0.930971     -1.669104
  H       1.984565     -1.444674     -1.391552
  H       1.888978     -1.069026      0.357446
  H       4.285372      2.813233     -0.185253
  H       6.431518      2.694286      1.035148
  H       9.155141      1.360917      0.264734
  H       8.327058      1.262953      1.818348
  H       8.750184     -0.216729      0.941401
  H       7.403035     -0.954494     -1.007465
  H       5.250944     -0.839716     -2.236260
  H       0.323890      1.373654     -2.203138
  H       0.174741      1.824644     -0.488952
  H      -4.314339     -1.008054     -3.076397
  H      -3.309269      0.387370     -3.591544
  H      -2.686589     -1.273598     -3.751236
  H      -4.894872      0.898718     -1.959953
61
Coordinates from ORCA-job file E -2655.428253934302
  C      -6.704539      2.526726     -1.150994
  O      -5.890639      2.494934      0.028357
  C      -4.779888      1.742061      0.059183
  C      -4.068875      1.782312      1.265496
  C      -2.905941      1.042156      1.401918
  O      -2.167740      0.999970      2.529257
  C      -2.550136      1.806986      3.654555
  C      -2.428438      0.254666      0.316606
  S      -0.874181     -0.555163      0.610454
  C      -1.148697     -2.314105      0.877692
  C      -1.906247     -3.116109      0.019770
  C      -2.067448     -4.462503      0.318892
  C      -1.476754     -4.991936      1.469615
  Cl     -1.688475     -6.680045      1.837847
  C      -0.725893     -4.191093      2.327295
  C      -0.563961     -2.840199      2.032403
  C       0.095052     -0.465305     -0.950808
  C       1.591965     -0.806878     -0.750447
  N       1.927836      0.622316     -1.005686
  S       3.099341      1.026412     -2.191670
  O       3.141665     -0.026895     -3.208957
  O       2.755715      2.397238     -2.555428
  C       4.618973      0.975098     -1.254547
  C       4.896514      1.995582     -0.344406
  C       6.082844      1.947042      0.376388
  C       7.000021      0.899750      0.199233
  C       8.299649      0.878424      0.962716
  C       6.695365     -0.104172     -0.727452
  C       5.511655     -0.074715     -1.460919
  C       0.511596      0.980999     -1.311253
  C      -3.174476      0.205173     -0.881177
  O      -2.699620     -0.594138     -1.869512
  C      -3.343202     -0.598688     -3.156223
  C      -4.341237      0.955045     -1.014896
  H      -7.524630      3.201617     -0.917890
  H      -7.102155      1.533363     -1.377588
  H      -6.141603      2.916574     -2.003654
  H      -4.459219      2.388453      2.069554
  H      -3.527257      1.500481      4.036176
  H      -1.788659      1.627642      4.409934
  H      -2.562020      2.865962      3.385531
  H      -2.363587     -2.694649     -0.865683
  H      -2.649212     -5.102020     -0.332747
  H      -0.278597     -4.615830      3.216819
  H       0.006307     -2.206572      2.701332
  H      -0.419887     -1.024643     -1.721904
  H       1.966513     -1.496106     -1.511140
  H       1.901288     -1.139662      0.242930
  H       4.204166      2.818283     -0.214019
  H       6.306968      2.739187      1.082829
  H       9.069520      1.442916      0.425462
  H       8.190514      1.332972      1.949974
  H       8.670182     -0.140565      1.091994
  H       7.396337     -0.916486     -0.886900
  H       5.289313     -0.840364     -2.193711
  H       0.312221      1.252430     -2.349780
  H       0.138095      1.772115     -0.657621
  H      -4.363815     -0.981513     -3.079867
  H      -3.342669      0.402354     -3.593771
  H      -2.748302     -1.267481     -3.774774
  H      -4.901618      0.920695     -1.934689
61
Coordinates from ORCA-job file E -2655.428340014410
  C      -6.625840      2.628826     -1.086882
  O      -5.791939      2.573760      0.077483
  C      -4.703337      1.788904      0.089092
  C      -3.966768      1.811057      1.280838
  C      -2.822561      1.038244      1.393984
  O      -2.061922      0.977215      2.505649
  C      -2.394040      1.799877      3.635474
  C      -2.390121      0.234959      0.301435
  S      -0.848289     -0.609575      0.566236
  C      -1.166004     -2.356692      0.860463
  C      -2.005652     -3.128399      0.052456
  C      -2.181512     -4.472615      0.349970
  C      -1.526444     -5.029825      1.451440
  Cl     -1.757859     -6.715906      1.817409
  C      -0.695787     -4.258725      2.261511
  C      -0.516565     -2.909984      1.966485
  C       0.077735     -0.574938     -1.023163
  C       1.578722     -0.912422     -0.840149
  N       1.901680      0.516230     -1.098362
  S       3.105592      0.938802     -2.237191
  O       3.224823     -0.129123     -3.233502
  O       2.729082      2.290904     -2.638454
  C       4.587922      0.955104     -1.241466
  C       4.803142      2.011576     -0.355881
  C       5.967267      2.025176      0.401589
  C       6.923483      1.004596      0.284746
  C       8.201315      1.054059      1.082621
  C       6.680418     -0.037747     -0.617630
  C       5.520783     -0.069437     -1.388106
  C       0.491836      0.857202     -1.438269
  C      -3.161556      0.204243     -0.878980
  O      -2.729396     -0.609528     -1.874972
  C      -3.389252     -0.587778     -3.152992
  C      -4.309916      0.985517     -0.990249
  H      -7.421600      3.327496     -0.839970
  H      -7.056147      1.647364     -1.305226
  H      -6.067142      3.001743     -1.949840
  H      -4.322091      2.429845      2.091367
  H      -3.370873      1.523896      4.040270
  H      -1.621222      1.600922      4.374177
  H      -2.380374      2.857510      3.361356
  H      -2.506575     -2.685707     -0.798388
  H      -2.824505     -5.089698     -0.264863
  H      -0.198497     -4.704905      3.113093
  H       0.119921     -2.300352      2.597108
  H      -0.460893     -1.159710     -1.758131
  H       1.938673     -1.598411     -1.611756
  H       1.906061     -1.253310      0.144574
  H       4.081771      2.815592     -0.275571
  H       6.144482      2.847035      1.087118
  H       8.962662      1.635890      0.551800
  H       8.047411      1.528114      2.054652
  H       8.608338      0.054379      1.247553
  H       7.412999     -0.829550     -0.731356
  H       5.349120     -0.861592     -2.106538
  H       0.303420      1.074444     -2.491831
  H       0.102789      1.677231     -0.831150
  H      -4.418289     -0.944966     -3.066472
  H      -3.368831      0.416591     -3.582394
  H      -2.820005     -1.267334     -3.783735
  H      -4.889644      0.964022     -1.898380
61
Coordinates from ORCA-job file E -2655.428100160549
  C      -6.464015      2.818831     -1.061532
  O      -5.645226      2.706017      0.109608
  C      -4.598001      1.868604      0.121744
  C      -3.862729      1.849771      1.316904
  C      -2.756739      1.022001      1.425572
  O      -1.997219      0.923459      2.535973
  C      -2.287396      1.759024      3.667773
  C      -2.365203      0.201204      0.330750
  S      -0.865734     -0.718101      0.589372
  C      -1.264926     -2.453855      0.869091
  C      -2.088288     -3.184531      0.008484
  C      -2.284164     -4.536430      0.248105
  C      -1.674131     -5.140422      1.349041
  Cl     -1.930675     -6.838016      1.637698
  C      -0.865335     -4.408931      2.217043
  C      -0.655966     -3.054978      1.972069
  C       0.052790     -0.734882     -1.004203
  C       1.551912     -1.077708     -0.802153
  N       1.883461      0.340488     -1.090898
  S       3.100689      0.718172     -2.223619
  O       3.289585     -0.423485     -3.127227
  O       2.674449      2.014613     -2.746965
  C       4.560545      0.883487     -1.213285
  C       4.706717      2.026572     -0.426314
  C       5.869904      2.184729      0.315119
  C       6.892174      1.223922      0.277477
  C       8.172323      1.437311      1.043126
  C       6.713836      0.088196     -0.522369
  C       5.557764     -0.086779     -1.277296
  C       0.483374      0.676143     -1.466332
  C      -3.130313      0.216827     -0.849238
  O      -2.721487     -0.599576     -1.850013
  C      -3.374002     -0.534408     -3.129419
  C      -4.241865      1.049778     -0.958744
  H      -7.226099      3.553291     -0.812655
  H      -6.940423      1.863506     -1.297682
  H      -5.878120      3.175411     -1.913154
  H      -4.185596      2.485317      2.127533
  H      -3.277672      1.532579      4.069857
  H      -1.526294      1.517836      4.405838
  H      -2.217601      2.814935      3.395801
  H      -2.551436     -2.709729     -0.844359
  H      -2.909381     -5.124572     -0.412144
  H      -0.398556     -4.892224      3.065268
  H      -0.017418     -2.481846      2.634742
  H      -0.503423     -1.332819     -1.714380
  H       1.899098     -1.784653     -1.561432
  H       1.876107     -1.409411      0.186229
  H       3.933555      2.785180     -0.415550
  H       5.996030      3.076193      0.920260
  H       8.881632      2.020818      0.446208
  H       7.997640      1.988251      1.969778
  H       8.654795      0.489750      1.290203
  H       7.497264     -0.660168     -0.572240
  H       5.438328     -0.947289     -1.924989
  H       0.308899      0.834260     -2.532369
  H       0.088596      1.530632     -0.913686
  H      -4.414572     -0.858232     -3.052911
  H      -3.317654      0.476499     -3.539660
  H      -2.826212     -1.222399     -3.769875
  H      -4.817595      1.061938     -1.869872
61
Coordinates from ORCA-job file E -2655.428439275902
  C      -6.442165      2.836411     -1.050761
  O      -5.619304      2.713200      0.116418
  C      -4.576399      1.870925      0.119325
  C      -3.843300      1.836506      1.315028
  C      -2.740432      1.004553      1.417236
  O      -1.983125      0.890723      2.526482
  C      -2.275438      1.711537      3.668462
  C      -2.350754      0.193588      0.314687
  S      -0.851288     -0.728101      0.561336
  C      -1.243482     -2.461845      0.860396
  C      -2.124889     -3.186778      0.053490
  C      -2.344215     -4.529042      0.329052
  C      -1.688417     -5.130876      1.405379
  Cl     -1.971186     -6.815687      1.739631
  C      -0.816684     -4.405699      2.215631
  C      -0.593785     -3.059253      1.941621
  C       0.058830     -0.754193     -1.038157
  C       1.562575     -1.079662     -0.841177
  N       1.876574      0.344366     -1.128546
  S       3.102896      0.741697     -2.249688
  O       3.306579     -0.394112     -3.155161
  O       2.677127      2.040644     -2.766122
  C       4.555569      0.909105     -1.229210
  C       4.696541      2.048858     -0.436219
  C       5.849019      2.197389      0.323863
  C       6.866498      1.231204      0.298178
  C       8.133330      1.430773      1.089976
  C       6.694631      0.100710     -0.509954
  C       5.547993     -0.066613     -1.281314
  C       0.473789      0.656641     -1.518152
  C      -3.117557      0.220862     -0.866731
  O      -2.719173     -0.597006     -1.871490
  C      -3.375693     -0.522881     -3.148946
  C      -4.223844      1.061510     -0.969630
  H      -7.199126      3.573412     -0.794238
  H      -6.925067      1.885172     -1.290296
  H      -5.858344      3.194448     -1.903112
  H      -4.165493      2.464267      2.132149
  H      -3.265738      1.479299      4.067156
  H      -1.514902      1.461424      4.404093
  H      -2.206640      2.771034      3.410841
  H      -2.628112     -2.711742     -0.776863
  H      -3.021028     -5.110714     -0.284181
  H      -0.321089     -4.885439      3.049570
  H       0.078942     -2.487028      2.569985
  H      -0.493346     -1.367129     -1.738661
  H       1.919545     -1.777555     -1.603639
  H       1.892244     -1.410419      0.145648
  H       3.926028      2.810141     -0.430796
  H       5.969133      3.083879      0.937437
  H       8.856838      2.015561      0.511717
  H       7.943981      1.974038      2.018161
  H       8.605746      0.478392      1.337775
  H       7.473382     -0.653226     -0.548668
  H       5.430848     -0.926958     -1.928959
  H       0.307139      0.796872     -2.587968
  H       0.062513      1.513166     -0.981287
  H      -4.418891     -0.837845     -3.069993
  H      -3.312529      0.488005     -3.557803
  H      -2.836019     -1.213796     -3.793121
  H      -4.800834      1.083387     -1.879780
61
Coordinates from ORCA-job file E -2655.428481388406
  C      -6.410344      2.862702     -1.106264
  O      -5.616270      2.725709      0.079468
  C      -4.585503      1.869635      0.104416
  C      -3.886232      1.822663      1.319624
  C      -2.794374      0.981685      1.449181
  O      -2.062799      0.862656      2.574203
  C      -2.384263      1.677661      3.712777
  C      -2.384349      0.171906      0.353437
  S      -0.898088     -0.759906      0.621652
  C      -1.285107     -2.507654      0.854623
  C      -2.057970     -3.244454     -0.046987
  C      -2.304523     -4.587126      0.212867
  C      -1.771157     -5.178532      1.360828
  Cl     -2.081057     -6.862518      1.674794
  C      -1.001014     -4.442350      2.259444
  C      -0.760739     -3.094661      2.006822
  C       0.065861     -0.737955     -0.948227
  C       1.567489     -1.044821     -0.716162
  N       1.881288      0.386889     -0.992454
  S       3.085983      0.760494     -2.162023
  O       3.247940     -0.401137     -3.041675
  O       2.662782      2.055501     -2.691190
  C       4.581115      0.936608     -1.208760
  C       4.777348      2.098978     -0.460646
  C       5.968456      2.252351      0.236396
  C       6.969309      1.269845      0.191178
  C       8.276609      1.472804      0.913621
  C       6.740592      0.117118     -0.569269
  C       5.553618     -0.057948     -1.275414
  C       0.473487      0.686076     -1.393979
  C      -3.119879      0.209453     -0.851044
  O      -2.700335     -0.610281     -1.846133
  C      -3.349313     -0.555435     -3.129139
  C      -4.212998      1.063432     -0.980447
  H      -7.161958      3.609983     -0.864372
  H      -6.901777      1.919181     -1.358948
  H      -5.802180      3.213955     -1.944290
  H      -4.223713      2.453536      2.128322
  H      -3.387202      1.449239      4.080989
  H      -1.646613      1.417749      4.468100
  H      -2.301803      2.738575      3.465143
  H      -2.479287     -2.778362     -0.926819
  H      -2.905714     -5.175997     -0.468182
  H      -0.604586     -4.912532      3.150129
  H      -0.179104     -2.510995      2.710583
  H      -0.455306     -1.343064     -1.679896
  H       1.959657     -1.734524     -1.467143
  H       1.870582     -1.370677      0.280636
  H       4.018241      2.871111     -0.441254
  H       6.131000      3.154045      0.816896
  H       8.980761      2.021368      0.278427
  H       8.143333      2.053617      1.828511
  H       8.744104      0.521212      1.173578
  H       7.504325     -0.651431     -0.618546
  H       5.388807     -0.938607     -1.883056
  H       0.325319      0.842251     -2.464303
  H       0.046829      1.529244     -0.849236
  H      -4.393448     -0.867888     -3.050564
  H      -3.282394      0.448025     -3.554893
  H      -2.807107     -1.256367     -3.760352
  H      -4.766332      1.098067     -1.904879
61
Coordinates from ORCA-job file E -2655.428533440377
  C      -6.282264      2.961684     -1.053098
  O      -5.454459      2.819266      0.108500
  C      -4.461028      1.917742      0.120780
  C      -3.725785      1.865047      1.312173
  C      -2.665600      0.982321      1.424637
  O      -1.903573      0.853928      2.528720
  C      -2.152319      1.704343      3.659775
  C      -2.323673      0.135214      0.333641
  S      -0.854833     -0.832302      0.572523
  C      -1.290060     -2.564650      0.821815
  C      -2.131736     -3.274028     -0.039173
  C      -2.415750     -4.605935      0.237496
  C      -1.856058     -5.212758      1.365805
  Cl     -2.216875     -6.881765      1.704973
  C      -1.019787     -4.503078      2.224761
  C      -0.740040     -3.165885      1.955165
  C       0.062632     -0.847801     -1.026376
  C       1.571907     -1.132345     -0.828332
  N       1.848980      0.309089     -1.085409
  S       3.073058      0.749407     -2.211333
  O       3.307268     -0.391222     -3.099801
  O       2.613868      2.035533     -2.730421
  C       4.528680      0.973216     -1.204472
  C       4.663379      2.133814     -0.440318
  C       5.822463      2.315372      0.303161
  C       6.852897      1.362884      0.288865
  C       8.124647      1.595771      1.063869
  C       6.687762      0.212214     -0.490300
  C       5.534103      0.009409     -1.243638
  C       0.443294      0.569654     -1.514325
  C      -3.101061      0.175407     -0.845509
  O      -2.757450     -0.687593     -1.835531
  C      -3.441058     -0.631828     -3.100759
  C      -4.160377      1.073258     -0.957008
  H      -6.992927      3.746472     -0.805568
  H      -6.821593      2.033911     -1.264293
  H      -5.689194      3.265326     -1.920282
  H      -4.011494      2.523965      2.118759
  H      -3.151146      1.525284      4.065295
  H      -1.401466      1.429374      4.396738
  H      -2.035225      2.755843      3.386731
  H      -2.566685     -2.794348     -0.907075
  H      -3.067126     -5.174261     -0.414081
  H      -0.601071     -4.985402      3.098758
  H      -0.107890     -2.601216      2.630064
  H      -0.470239     -1.481948     -1.724539
  H       1.964399     -1.797504     -1.601948
  H       1.901823     -1.470751      0.156141
  H       3.883659      2.885348     -0.444813
  H       5.936868      3.216405      0.896126
  H       8.833930      2.178878      0.466072
  H       7.936749      2.154619      1.983297
  H       8.612935      0.654864      1.325495
  H       7.476593     -0.531701     -0.519435
  H       5.421357     -0.867405     -1.868278
  H       0.308079      0.687911     -2.592283
  H      -0.010365      1.419806     -1.002820
  H      -4.495888     -0.892845     -2.984430
  H      -3.340564      0.357062     -3.553780
  H      -2.950201     -1.372263     -3.728785
  H      -4.744470      1.111294     -1.861818
61
Coordinates from ORCA-job file E -2655.428643524566
  C      -6.268810      2.992560     -1.033981
  O      -5.437903      2.838854      0.123958
  C      -4.446279      1.934842      0.127103
  C      -3.709525      1.868943      1.317269
  C      -2.651873      0.981107      1.420399
  O      -1.891898      0.836437      2.523958
  C      -2.136087      1.675841      3.664106
  C      -2.316561      0.140051      0.322677
  S      -0.853433     -0.838959      0.550693
  C      -1.294537     -2.566176      0.824660
  C      -2.176924     -3.270047      0.001150
  C      -2.449062     -4.602574      0.283921
  C      -1.842572     -5.214127      1.384758
  Cl     -2.189725     -6.884291      1.731652
  C      -0.969023     -4.508830      2.209612
  C      -0.696656     -3.172120      1.931022
  C       0.050580     -0.873257     -1.056542
  C       1.555905     -1.180758     -0.864810
  N       1.851304      0.257787     -1.114791
  S       3.087678      0.688093     -2.231019
  O       3.344948     -0.465465     -3.096707
  O       2.622846      1.961124     -2.777088
  C       4.526582      0.947669     -1.209036
  C       4.634660      2.120418     -0.459966
  C       5.780184      2.328482      0.297173
  C       6.823674      1.390285      0.311029
  C       8.080998      1.652134      1.100145
  C       6.684915      0.226100     -0.453298
  C       5.545008     -0.003170     -1.219586
  C       0.451279      0.535175     -1.551948
  C      -3.094952      0.194200     -0.854285
  O      -2.754561     -0.659104     -1.852176
  C      -3.438111     -0.584165     -3.116017
  C      -4.150243      1.097368     -0.957646
  H      -6.978210      3.775710     -0.777574
  H      -6.809506      2.067283     -1.251955
  H      -5.678154      3.303595     -1.900139
  H      -3.992873      2.520466      2.130506
  H      -3.136468      1.498969      4.066532
  H      -1.388022      1.387661      4.398851
  H      -2.011588      2.729485      3.402931
  H      -2.644583     -2.788178     -0.847135
  H      -3.127620     -5.168003     -0.342084
  H      -0.510448     -4.996083      3.060428
  H      -0.027397     -2.613223      2.574367
  H      -0.498129     -1.501946     -1.746428
  H       1.934627     -1.844739     -1.646753
  H       1.885797     -1.531670      0.115209
  H       3.844821      2.861061     -0.485842
  H       5.873935      3.239858      0.878013
  H       8.789526      2.238633      0.504962
  H       7.871846      2.219224      2.009871
  H       8.579563      0.722076      1.380184
  H       7.484261     -0.507071     -0.461476
  H       5.453103     -0.890690     -1.832823
  H       0.322555      0.644342     -2.631464
  H       0.005267      1.395557     -1.050910
  H      -4.494757     -0.838176     -3.001686
  H      -3.330503      0.408957     -3.558255
  H      -2.953044     -1.321409     -3.752341
  H      -4.735827      1.143986     -1.861276
61
Coordinates from ORCA-job file E -2655.428712304839
  C      -6.298080      2.980699     -0.990464
  O      -5.446918      2.834774      0.153569
  C      -4.448355      1.938525      0.141628
  C      -3.693536      1.877390      1.320849
  C      -2.630989      0.993488      1.409417
  O      -1.855246      0.852857      2.502270
  C      -2.086244      1.692775      3.644659
  C      -2.307603      0.153161      0.307496
  S      -0.844473     -0.829345      0.518260
  C      -1.286314     -2.553846      0.806257
  C      -2.182932     -3.259002     -0.000394
  C      -2.451822     -4.590095      0.290777
  C      -1.825902     -5.200013      1.381200
  Cl     -2.169941     -6.868547      1.738554
  C      -0.936190     -4.494174      2.188373
  C      -0.667221     -3.158644      1.901787
  C       0.038766     -0.873865     -1.101689
  C       1.538070     -1.215601     -0.922592
  N       1.861700      0.221600     -1.145114
  S       3.116394      0.645674     -2.245910
  O       3.392827     -0.514866     -3.096669
  O       2.656115      1.912255     -2.810801
  C       4.536648      0.925130     -1.203532
  C       4.630266      2.111188     -0.474545
  C       5.761323      2.334187      0.299735
  C       6.804224      1.396739      0.351303
  C       8.046837      1.674640      1.157947
  C       6.679798      0.218127     -0.393420
  C       5.554357     -0.026016     -1.176125
  C       0.469429      0.526991     -1.591435
  C      -3.100423      0.205970     -0.859019
  O      -2.768441     -0.645120     -1.860568
  C      -3.473894     -0.576859     -3.112281
  C      -4.161870      1.103413     -0.947769
  H      -7.010986      3.756635     -0.722157
  H      -6.832997      2.050204     -1.199975
  H      -5.725046      3.298026     -1.866085
  H      -3.968855      2.527060      2.138265
  H      -3.080803      1.513973      4.060299
  H      -1.328009      1.407000      4.369801
  H      -1.967623      2.746453      3.380902
  H      -2.665324     -2.778757     -0.840561
  H      -3.143007     -5.155784     -0.321104
  H      -0.462975     -4.980079      3.031845
  H       0.015470     -2.599373      2.530659
  H      -0.532651     -1.486670     -1.787730
  H       1.898417     -1.869310     -1.721779
  H       1.866393     -1.594691      0.047209
  H       3.841089      2.851087     -0.529067
  H       5.844147      3.256974      0.864035
  H       8.764427      2.253254      0.566055
  H       7.820244      2.255678      2.054574
  H       8.542130      0.750431      1.461736
  H       7.479010     -0.514964     -0.373049
  H       5.473475     -0.925879     -1.772909
  H       0.350570      0.635860     -2.671919
  H       0.035574      1.396045     -1.095108
  H      -4.527031     -0.835882     -2.978999
  H      -3.379236      0.415811     -3.558526
  H      -2.995918     -1.313077     -3.755154
  H      -4.760846      1.146487     -1.842912
61
Coordinates from ORCA-job file E -2655.428770465358
  C      -6.352182      2.941300     -0.941550
  O      -5.474960      2.813791      0.184783
  C      -4.464904      1.931027      0.156847
  C      -3.685088      1.886595      1.320464
  C      -2.611109      1.015097      1.392941
  O      -1.813732      0.889603      2.471982
  C      -2.033844      1.732483      3.614288
  C      -2.300389      0.171127      0.289909
  S      -0.831869     -0.806764      0.482976
  C      -1.267566     -2.531131      0.780078
  C      -2.153305     -3.248872     -0.027338
  C      -2.416911     -4.578893      0.273839
  C      -1.795327     -5.175800      1.373585
  Cl     -2.132485     -6.843205      1.742704
  C      -0.915280     -4.457878      2.180958
  C      -0.652173     -3.123395      1.884865
  C       0.031406     -0.854678     -1.149043
  C       1.525193     -1.224337     -0.982735
  N       1.871638      0.212966     -1.173137
  S       3.143797      0.637519     -2.258341
  O       3.429232     -0.521552     -3.108050
  O       2.696333      1.907476     -2.826110
  C       4.549836      0.912799     -1.195867
  C       4.646138      2.107717     -0.482582
  C       5.765508      2.326564      0.309851
  C       6.793944      1.375809      0.394926
  C       8.025378      1.648813      1.220084
  C       6.666994      0.188156     -0.335042
  C       5.552888     -0.052050     -1.134888
  C       0.486243      0.542036     -1.627657
  C      -3.115385      0.209849     -0.861592
  O      -2.791475     -0.641374     -1.865406
  C      -3.527621     -0.593593     -3.100081
  C      -4.188720      1.094668     -0.934351
  H      -7.071380      3.707208     -0.661508
  H      -6.876667      2.001613     -1.135808
  H      -5.802861      3.263655     -1.830411
  H      -3.951574      2.537781      2.139567
  H      -3.019028      1.545169      4.048114
  H      -1.260056      1.458282      4.327347
  H      -1.931155      2.786067      3.343552
  H      -2.633720     -2.778695     -0.874064
  H      -3.100547     -5.153746     -0.337996
  H      -0.445809     -4.933612      3.032289
  H       0.022226     -2.554458      2.514021
  H      -0.559591     -1.450608     -1.833354
  H       1.871746     -1.863749     -1.799401
  H       1.851670     -1.632401     -0.024208
  H       3.868786      2.857730     -0.562741
  H       5.850501      3.256689      0.861655
  H       8.760027      2.212194      0.634528
  H       7.789839      2.242700      2.105940
  H       8.504092      0.722412      1.543083
  H       7.455207     -0.555633     -0.289292
  H       5.470339     -0.959897     -1.719271
  H       0.377633      0.654491     -2.708867
  H       0.061597      1.416052     -1.132267
  H      -4.573882     -0.864458     -2.938942
  H      -3.456394      0.396030     -3.557298
  H      -3.055903     -1.329521     -3.747889
  H      -4.805301      1.126928     -1.817988
61
Coordinates from ORCA-job file E -2655.428816254543
  C      -6.402919      2.895751     -0.907665
  O      -5.503065      2.790265      0.202982
  C      -4.483855      1.918755      0.165303
  C      -3.681519      1.896383      1.314176
  C      -2.597203      1.037072      1.376358
  O      -1.778111      0.934068      2.441501
  C      -1.987774      1.786621      3.578560
  C      -2.297720      0.184196      0.276948
  S      -0.822766     -0.785981      0.458360
  C      -1.249589     -2.512297      0.757640
  C      -2.100888     -3.249604     -0.068807
  C      -2.358826     -4.579413      0.239336
  C      -1.764594     -5.157163      1.363970
  Cl     -2.093466     -6.824589      1.740656
  C      -0.918016     -4.420126      2.189899
  C      -0.661429     -3.086009      1.887050
  C       0.029804     -0.829027     -1.180011
  C       1.521765     -1.207196     -1.020543
  N       1.874018      0.232689     -1.185638
  S       3.154647      0.667356     -2.260823
  O       3.436748     -0.480790     -3.125914
  O       2.719354      1.948730     -2.812046
  C       4.556722      0.916842     -1.186810
  C       4.667174      2.109645     -0.472354
  C       5.782505      2.307993      0.331494
  C       6.792791      1.339002      0.426346
  C       8.021052      1.589536      1.263228
  C       6.651922      0.154113     -0.305638
  C       5.541626     -0.065763     -1.116389
  C       0.491529      0.569942     -1.645268
  C      -3.132942      0.203165     -0.860575
  O      -2.815168     -0.651924     -1.863328
  C      -3.578564     -0.629402     -3.082059
  C      -4.217968      1.074609     -0.922368
  H      -7.126080      3.655633     -0.621534
  H      -6.919292      1.947840     -1.082819
  H      -5.874350      3.215853     -1.809810
  H      -3.938972      2.554884      2.130301
  H      -2.962926      1.593031      4.031932
  H      -1.198292      1.528772      4.280433
  H      -1.901876      2.838318      3.294962
  H      -2.562513     -2.794199     -0.933877
  H      -3.016523     -5.168836     -0.386871
  H      -0.469845     -4.880951      3.060713
  H      -0.013752     -2.502178      2.530399
  H      -0.569694     -1.414530     -1.865903
  H       1.865319     -1.833278     -1.848710
  H       1.847683     -1.634024     -0.070047
  H       3.904452      2.873616     -0.560069
  H       5.878537      3.236403      0.884347
  H       8.770103      2.142333      0.685902
  H       7.787364      2.184815      2.148650
  H       8.481500      0.654454      1.587833
  H       7.426214     -0.603694     -0.252848
  H       5.449054     -0.971588     -1.702382
  H       0.390220      0.688388     -2.726700
  H       0.067237      1.442503     -1.147115
  H      -4.617724     -0.910468     -2.894469
  H      -3.529105      0.354786     -3.553599
  H      -3.112223     -1.368059     -3.730646
  H      -4.849789      1.092825     -1.795547
61
Coordinates from ORCA-job file E -2655.428855582817
  C      -6.406677      2.884389     -0.868381
  O      -5.479261      2.794820      0.220795
  C      -4.463979      1.919541      0.172679
  C      -3.632916      1.915039      1.301021
  C      -2.548819      1.054827      1.350340
  O      -1.701446      0.970466      2.394822
  C      -1.880999      1.842073      3.522520
  C      -2.279039      0.182513      0.258624
  S      -0.804672     -0.791378      0.423219
  C      -1.233761     -2.515489      0.732514
  C      -2.065180     -3.266715     -0.101544
  C      -2.326003     -4.593326      0.218940
  C      -1.754065     -5.154403      1.363437
  Cl     -2.085703     -6.817905      1.754957
  C      -0.926967     -4.403751      2.196829
  C      -0.667923     -3.073087      1.881360
  C       0.029053     -0.838633     -1.224713
  C       1.524345     -1.205187     -1.074700
  N       1.859610      0.241286     -1.216827
  S       3.148962      0.709060     -2.268779
  O       3.444350     -0.418076     -3.155767
  O       2.713492      2.000777     -2.794871
  C       4.538761      0.936905     -1.173851
  C       4.646404      2.120128     -0.443120
  C       5.751470      2.300751      0.379447
  C       6.753917      1.323992      0.476721
  C       7.971614      1.555162      1.334403
  C       6.616384      0.149607     -0.272584
  C       5.516846     -0.052436     -1.102251
  C       0.478818      0.564403     -1.690144
  C      -3.141223      0.185809     -0.858972
  O      -2.846398     -0.681554     -1.859129
  C      -3.640332     -0.676740     -3.058536
  C      -4.226931      1.057347     -0.907278
  H      -7.120047      3.651498     -0.577040
  H      -6.930135      1.935377     -1.014361
  H      -5.899925      3.187269     -1.788828
  H      -3.867303      2.589301      2.111246
  H      -2.844040      1.657234      4.004668
  H      -1.073396      1.595177      4.207554
  H      -1.801876      2.888827      3.219318
  H      -2.512176     -2.823809     -0.980955
  H      -2.968596     -5.192963     -0.413167
  H      -0.495783     -4.851558      3.082922
  H      -0.035793     -2.478660      2.530325
  H      -0.576059     -1.427288     -1.902943
  H       1.871139     -1.813102     -1.915225
  H       1.858240     -1.646619     -0.133646
  H       3.890362      2.890360     -0.532771
  H       5.845461      3.221491      0.945287
  H       8.730543      2.114846      0.776926
  H       7.728237      2.136076      2.226791
  H       8.424113      0.612762      1.649012
  H       7.385196     -0.613666     -0.218715
  H       5.428514     -0.949116     -1.702711
  H       0.387053      0.675337     -2.773647
  H       0.040515      1.435061     -1.201016
  H      -4.674754     -0.953389     -2.840613
  H      -3.601332      0.299986     -3.546250
  H      -3.191397     -1.425869     -3.707388
  H      -4.878490      1.065321     -1.765852
61
Coordinates from ORCA-job file E -2655.428811197466
  C      -6.382444      2.877634     -0.794044
  O      -5.402046      2.814520      0.249617
  C      -4.398505      1.927544      0.181078
  C      -3.512479      1.952426      1.266287
  C      -2.433959      1.084286      1.290298
  O      -1.533037      1.029226      2.290915
  C      -1.647309      1.939002      3.396612
  C      -2.226932      0.173602      0.216699
  S      -0.757289     -0.811868      0.346059
  C      -1.193573     -2.527287      0.690538
  C      -2.017428     -3.300200     -0.131213
  C      -2.286118     -4.616774      0.223508
  C      -1.730949     -5.146615      1.391035
  Cl     -2.073150     -6.797200      1.825737
  C      -0.911575     -4.374703      2.212453
  C      -0.643563     -3.054901      1.861243
  C       0.030223     -0.875083     -1.323455
  C       1.535510     -1.205172     -1.198578
  N       1.821747      0.254317     -1.300895
  S       3.120576      0.804813     -2.298267
  O       3.452757     -0.265140     -3.239593
  O       2.670946      2.115795     -2.759718
  C       4.481194      0.987382     -1.158155
  C       4.561926      2.134330     -0.368123
  C       5.637571      2.273898      0.501023
  C       6.636350      1.292516      0.587136
  C       7.821465      1.478371      1.499917
  C       6.527479      0.156631     -0.223782
  C       5.458702     -0.003674     -1.101195
  C       0.442803      0.536436     -1.799189
  C      -3.140005      0.152174     -0.859365
  O      -2.894111     -0.739987     -1.852363
  C      -3.743765     -0.761288     -3.012890
  C      -4.221686      1.029871     -0.881152
  H      -7.072387      3.662591     -0.494016
  H      -6.922148      1.930387     -0.880854
  H      -5.919522      3.142850     -1.748618
  H      -3.699250      2.656874      2.063186
  H      -2.584515      1.778701      3.935438
  H      -0.805943      1.708280      4.045787
  H      -1.577350      2.974592      3.055165
  H      -2.455632     -2.880656     -1.026699
  H      -2.922584     -5.232225     -0.399454
  H      -0.492280     -4.798239      3.116076
  H      -0.016816     -2.444211      2.500174
  H      -0.584237     -1.479326     -1.979268
  H       1.887880     -1.775587     -2.063441
  H       1.894592     -1.669200     -0.277833
  H       3.808347      2.908038     -0.446592
  H       5.710465      3.165921      1.114040
  H       8.596085      2.073107      1.003729
  H       7.542988      2.004907      2.415640
  H       8.268565      0.521100      1.775043
  H       7.294843     -0.608733     -0.180043
  H       5.394634     -0.869051     -1.748790
  H       0.365914      0.626516     -2.886644
  H      -0.029380      1.400953     -1.331537
  H      -4.768292     -1.025374     -2.739787
  H      -3.721735      0.202162     -3.527291
  H      -3.330174     -1.530000     -3.662333
  H      -4.911394      1.020838     -1.709155
61
Coordinates from ORCA-job file E -2655.428517355070
  C      -6.307255      2.900525     -0.749464
  O      -5.294960      2.842416      0.263621
  C      -4.307193      1.939319      0.180482
  C      -3.383704      1.974734      1.233591
  C      -2.316384      1.092558      1.238447
  O      -1.380323      1.046061      2.206823
  C      -1.443254      1.979421      3.296704
  C      -2.159478      0.157943      0.177400
  S      -0.698845     -0.843440      0.280041
  C      -1.149114     -2.544350      0.672842
  C      -2.004492     -3.325135     -0.108507
  C      -2.287426     -4.626713      0.288140
  C      -1.717613     -5.133637      1.458982
  Cl     -2.080319     -6.764615      1.947605
  C      -0.867600     -4.353950      2.240788
  C      -0.583391     -3.050035      1.845785
  C       0.041242     -0.935524     -1.409105
  C       1.559728     -1.207201     -1.311002
  N       1.775528      0.263428     -1.396805
  S       3.065650      0.908236     -2.340146
  O       3.439918     -0.090091     -3.341180
  O       2.581439      2.230731     -2.726184
  C       4.399715      1.049008     -1.162017
  C       4.431882      2.140424     -0.293050
  C       5.474279      2.237190      0.621699
  C       6.486491      1.267578      0.678042
  C       7.631454      1.404462      1.649165
  C       6.428749      0.190168     -0.214033
  C       5.395294      0.074348     -1.139549
  C       0.395597      0.482320     -1.913954
  C      -3.107926      0.127680     -0.866956
  O      -2.904638     -0.783001     -1.854174
  C      -3.789706     -0.810438     -2.987888
  C      -4.179479      1.018080     -0.868381
  H      -6.974434      3.702978     -0.444331
  H      -6.864645      1.960836     -0.799545
  H      -5.870566      3.138261     -1.723521
  H      -3.532316      2.698937      2.020852
  H      -2.361291      1.841612      3.873567
  H      -0.580647      1.752203      3.918744
  H      -1.374564      3.007053      2.931652
  H      -2.456774     -2.922334     -1.005093
  H      -2.947539     -5.247657     -0.303929
  H      -0.436291     -4.759493      3.147059
  H       0.067907     -2.433392      2.453737
  H      -0.573914     -1.571967     -2.032746
  H       1.918521     -1.748527     -2.192666
  H       1.954757     -1.673297     -0.406077
  H       3.665632      2.903807     -0.343972
  H       5.508731      3.085220      1.297396
  H       8.410404      2.052425      1.232861
  H       7.306108      1.850868      2.591802
  H       8.090096      0.437702      1.866197
  H       7.208059     -0.564042     -0.194436
  H       5.371280     -0.744754     -1.847315
  H       0.326412      0.540044     -3.005018
  H      -0.118185      1.337433     -1.474049
  H      -4.808483     -1.058578     -2.680649
  H      -3.771481      0.145541     -3.516135
  H      -3.405273     -1.593191     -3.638512
  H      -4.895371      1.003910     -1.673535
61
Coordinates from ORCA-job file E -2655.428854746225
  C      -6.307515      2.914934     -0.835084
  O      -5.350084      2.826538      0.228014
  C      -4.352298      1.932275      0.165130
  C      -3.484102      1.936026      1.265225
  C      -2.413562      1.057931      1.295900
  O      -1.532229      0.977582      2.312434
  C      -1.657641      1.873996      3.427714
  C      -2.196502      0.160930      0.213085
  S      -0.733099     -0.832868      0.351803
  C      -1.182413     -2.538088      0.727830
  C      -2.060978     -3.297517     -0.048855
  C      -2.342000     -4.604908      0.328026
  C      -1.748524     -5.137942      1.475261
  Cl     -2.110133     -6.776076      1.940047
  C      -0.876447     -4.378844      2.253016
  C      -0.593005     -3.068945      1.877375
  C       0.046769     -0.918392     -1.319573
  C       1.562749     -1.198702     -1.198799
  N       1.798834      0.263988     -1.339406
  S       3.073033      0.852746     -2.334127
  O       3.411948     -0.182652     -3.311615
  O       2.594210      2.167246     -2.753732
  C       4.436901      1.019769     -1.194901
  C       4.478774      2.118417     -0.335226
  C       5.548255      2.240780      0.543440
  C       6.578463      1.288909      0.573707
  C       7.751336      1.454264      1.506226
  C       6.509719      0.202874     -0.307076
  C       5.448642      0.061634     -1.197486
  C       0.411185      0.494391     -1.830470
  C      -3.093258      0.157653     -0.876132
  O      -2.842569     -0.728664     -1.873394
  C      -3.669411     -0.724333     -3.050484
  C      -4.166922      1.044982     -0.904400
  H      -6.995318      3.703161     -0.538675
  H      -6.855161      1.974906     -0.946869
  H      -5.821432      3.188442     -1.775786
  H      -3.679131      2.630833      2.068630
  H      -2.605169      1.714663      3.948365
  H      -0.829309      1.628180      4.088060
  H      -1.573496      2.913317      3.100933
  H      -2.528477     -2.875673     -0.928338
  H      -3.019187     -5.210520     -0.260717
  H      -0.426829     -4.804810      3.140754
  H       0.077196     -2.468809      2.481497
  H      -0.553969     -1.555649     -1.955945
  H       1.924411     -1.778950     -2.053827
  H       1.942758     -1.629852     -0.270457
  H       3.697714      2.867896     -0.366745
  H       5.590506      3.094820      1.211129
  H       8.509106      2.104488      1.055613
  H       7.450200      1.912049      2.451347
  H       8.228380      0.496649      1.723885
  H       7.301961     -0.538007     -0.306465
  H       5.413754     -0.764701     -1.896441
  H       0.321092      0.558246     -2.919081
  H      -0.083689      1.353835     -1.377279
  H      -4.701392     -0.983615     -2.802211
  H      -3.628442      0.246967     -3.548710
  H      -3.249933     -1.486871     -3.703535
  H      -4.844270      1.049174     -1.742507
61
Coordinates from ORCA-job file E -2655.428918838418
  C      -6.276142      2.952370     -0.843803
  O      -5.328837      2.850229      0.226965
  C      -4.339131      1.946511      0.168882
  C      -3.481325      1.936707      1.276954
  C      -2.418648      1.049107      1.312974
  O      -1.546516      0.957352      2.336164
  C      -1.670470      1.853289      3.452083
  C      -2.200599      0.154165      0.228577
  S      -0.739654     -0.844027      0.363339
  C      -1.191998     -2.549381      0.733322
  C      -2.081956     -3.297966     -0.040820
  C      -2.364798     -4.607146      0.327893
  C      -1.757406     -5.154155      1.461146
  Cl     -2.118836     -6.795605      1.914074
  C      -0.872161     -4.406281      2.234980
  C      -0.590283     -3.092787      1.870554
  C       0.033828     -0.932787     -1.312849
  C       1.548140     -1.226772     -1.198014
  N       1.797902      0.233989     -1.338787
  S       3.077897      0.806688     -2.337805
  O       3.424240     -0.245193     -3.295629
  O       2.599364      2.112866     -2.783717
  C       4.436130      1.002401     -1.196825
  C       4.462103      2.109985     -0.348440
  C       5.529466      2.257526      0.528278
  C       6.574875      1.322517      0.566473
  C       7.745825      1.516898      1.495809
  C       6.522174      0.226888     -0.303345
  C       5.461442      0.059023     -1.189838
  C       0.411672      0.472221     -1.834582
  C      -3.089077      0.162611     -0.867207
  O      -2.838132     -0.724114     -1.862753
  C      -3.653577     -0.708605     -3.047422
  C      -4.152657      1.061534     -0.902612
  H      -6.958838      3.745912     -0.549863
  H      -6.831982      2.018275     -0.964046
  H      -5.779853      3.225129     -1.779285
  H      -3.677723      2.629242      2.081892
  H      -2.624348      1.704509      3.964083
  H      -0.851190      1.596230      4.119315
  H      -1.570854      2.892051      3.128072
  H      -2.556386     -2.866324     -0.911562
  H      -3.052029     -5.204350     -0.257835
  H      -0.412997     -4.842726      3.112645
  H       0.088627     -2.500648      2.472768
  H      -0.573131     -1.569438     -1.944220
  H       1.901214     -1.808718     -2.055294
  H       1.927600     -1.662017     -0.271559
  H       3.669829      2.847391     -0.387164
  H       5.558937      3.118854      1.187234
  H       8.492105      2.175290      1.037999
  H       7.437764      1.978857      2.436534
  H       8.238917      0.569698      1.722564
  H       7.325807     -0.501579     -0.296095
  H       5.436997     -0.776148     -1.878607
  H       0.324669      0.525050     -2.923703
  H      -0.077042      1.340246     -1.391676
  H      -4.690652     -0.956620     -2.808750
  H      -3.597859      0.262726     -3.544180
  H      -3.236311     -1.474775     -3.697568
  H      -4.824123      1.073924     -1.745614
61
Coordinates from ORCA-job file E -2655.428932181923
  C      -6.280872      2.941886     -0.889325
  O      -5.354709      2.836942      0.199508
  C      -4.358114      1.939915      0.153816
  C      -3.520604      1.928355      1.277520
  C      -2.453519      1.046401      1.328091
  O      -1.600864      0.951854      2.367276
  C      -1.749278      1.841739      3.485129
  C      -2.211070      0.159399      0.242437
  S      -0.743814     -0.827554      0.390146
  C      -1.185264     -2.535597      0.760139
  C      -2.067139     -3.290345     -0.017126
  C      -2.343221     -4.600746      0.351844
  C      -1.737082     -5.142671      1.488091
  Cl     -2.090537     -6.785697      1.941468
  C      -0.859757     -4.388528      2.264944
  C      -0.584192     -3.073804      1.900182
  C       0.039752     -0.910803     -1.282755
  C       1.557063     -1.189604     -1.164132
  N       1.796732      0.270937     -1.323942
  S       3.061472      0.840036     -2.342836
  O       3.383219     -0.201533     -3.321155
  O       2.584516      2.153718     -2.767573
  C       4.437047      1.010835     -1.218786
  C       4.461795      2.084117     -0.327211
  C       5.537686      2.208705      0.541936
  C       6.593089      1.283986      0.531238
  C       7.770604      1.452639      1.457327
  C       6.541910      0.223842     -0.381557
  C       5.471988      0.079142     -1.261399
  C       0.404572      0.494751     -1.811547
  C      -3.080334      0.167885     -0.868312
  O      -2.807707     -0.715087     -1.860413
  C      -3.604240     -0.701678     -3.057713
  C      -4.147585      1.061656     -0.918930
  H      -6.973194      3.730138     -0.603787
  H      -6.829668      2.006066     -1.026921
  H      -5.767485      3.223469     -1.812865
  H      -3.736640      2.614313      2.083027
  H      -2.712395      1.687428      3.977750
  H      -0.942379      1.583904      4.166952
  H      -1.646729      2.882452      3.168368
  H      -2.540079     -2.863361     -0.890583
  H      -3.024332     -5.202962     -0.235925
  H      -0.401511     -4.821108      3.144967
  H       0.089174     -2.477018      2.504108
  H      -0.556430     -1.556367     -1.915422
  H       1.915135     -1.780685     -2.012955
  H       1.938662     -1.607537     -0.230695
  H       3.659928      2.812217     -0.325720
  H       5.565514      3.042820      1.235140
  H       8.507043      2.135330      1.019662
  H       7.466608      1.874561      2.417926
  H       8.274039      0.501970      1.642816
  H       7.352630     -0.496161     -0.411540
  H       5.445279     -0.730942     -1.979504
  H       0.310387      0.542371     -2.900159
  H      -0.087416      1.360475     -1.368086
  H      -4.643425     -0.956139     -2.835771
  H      -3.546490      0.271002     -3.551623
  H      -3.172242     -1.464017     -3.702740
  H      -4.805526      1.072788     -1.772701
61
Coordinates from ORCA-job file E -2655.428908994502
  C      -6.245676      2.970804     -0.905651
  O      -5.329639      2.855071      0.190663
  C      -4.340499      1.949512      0.150419
  C      -3.510815      1.928873      1.279748
  C      -2.451593      1.038009      1.335799
  O      -1.607064      0.934320      2.380820
  C      -1.755714      1.823741      3.499092
  C      -2.208289      0.151589      0.249842
  S      -0.746385     -0.842897      0.404087
  C      -1.196292     -2.550052      0.768934
  C      -2.081605     -3.297873     -0.011053
  C      -2.362710     -4.608698      0.352742
  C      -1.759385     -5.157162      1.487329
  Cl     -2.119810     -6.800422      1.934553
  C      -0.879118     -4.409574      2.267189
  C      -0.597447     -3.094858      1.906974
  C       0.043702     -0.930796     -1.266164
  C       1.563109     -1.196306     -1.142346
  N       1.791205      0.264743     -1.314951
  S       3.049491      0.833542     -2.341626
  O       3.371813     -0.210764     -3.316895
  O       2.564647      2.142375     -2.772515
  C       4.427595      1.013604     -1.221871
  C       4.440947      2.079288     -0.320752
  C       5.519968      2.213046      0.542978
  C       6.589846      1.305144      0.517389
  C       7.770194      1.484633      1.437753
  C       6.549575      0.252395     -0.404319
  C       5.476703      0.098821     -1.279249
  C       0.397949      0.472277     -1.807011
  C      -3.070296      0.169003     -0.866677
  O      -2.800092     -0.716284     -1.857668
  C      -3.590613     -0.697262     -3.059016
  C      -4.130186      1.071313     -0.922333
  H      -6.933065      3.764834     -0.624164
  H      -6.801886      2.040302     -1.049670
  H      -5.721995      3.249551     -1.824302
  H      -3.726934      2.615024      2.085116
  H      -2.723431      1.676589      3.984846
  H      -0.955662      1.558089      4.185985
  H      -1.642426      2.863999      3.184398
  H      -2.553454     -2.865235     -0.882460
  H      -3.046508     -5.205894     -0.237025
  H      -0.423031     -4.847268      3.145819
  H       0.078342     -2.503160      2.513193
  H      -0.545091     -1.586875     -1.894864
  H       1.926606     -1.792046     -1.985642
  H       1.946926     -1.602505     -0.204601
  H       3.627980      2.794828     -0.308291
  H       5.539008      3.041043      1.243749
  H       8.492847      2.183136      1.001995
  H       7.465235      1.893107      2.403907
  H       8.290218      0.540687      1.611718
  H       7.371252     -0.454503     -0.445353
  H       5.457563     -0.705446     -2.004092
  H       0.305686      0.506951     -2.896401
  H      -0.101440      1.338917     -1.373710
  H      -4.632549     -0.944591     -2.842139
  H      -3.523813      0.275144     -3.552352
  H      -3.160686     -1.462451     -3.702073
  H      -4.783208      1.088717     -1.779703
61
Coordinates from ORCA-job file E -2655.428918372404
  C      -6.255291      2.967681     -0.918574
  O      -5.345379      2.852404      0.182908
  C      -4.354090      1.948924      0.146950
  C      -3.530063      1.928952      1.280431
  C      -2.469108      1.040599      1.340899
  O      -1.629870      0.937856      2.390309
  C      -1.786459      1.825646      3.508838
  C      -2.218002      0.155602      0.255563
  S      -0.753608     -0.834654      0.416202
  C      -1.198526     -2.544670      0.774423
  C      -2.074806     -3.295274     -0.012920
  C      -2.350373     -4.608888      0.345560
  C      -1.750905     -5.156863      1.482394
  Cl     -2.104122     -6.803565      1.922824
  C      -0.879979     -4.406207      2.269792
  C      -0.603720     -3.088920      1.914868
  C       0.044337     -0.921669     -1.251238
  C       1.563302     -1.187248     -1.122130
  N       1.792994      0.273897     -1.298113
  S       3.049751      0.833106     -2.334016
  O       3.362192     -0.215792     -3.307478
  O       2.569322      2.141900     -2.769921
  C       4.433270      1.007935     -1.219822
  C       4.448749      2.066728     -0.310499
  C       5.533906      2.198648      0.545827
  C       6.608305      1.296428      0.503830
  C       7.795677      1.475164      1.415228
  C       6.565343      0.250615     -0.425384
  C       5.485841      0.098468     -1.292479
  C       0.400155      0.479298     -1.794617
  C      -3.075285      0.171496     -0.864934
  O      -2.798610     -0.712463     -1.855514
  C      -3.584802     -0.695860     -3.059851
  C      -4.136446      1.072072     -0.925410
  H      -6.945731      3.760189     -0.640199
  H      -6.809027      2.036318     -1.066661
  H      -5.726810      3.248343     -1.833908
  H      -3.751900      2.613899      2.085294
  H      -2.756201      1.675370      3.989594
  H      -0.989209      1.561117      4.199441
  H      -1.674327      2.866490      3.195654
  H      -2.544559     -2.862567     -0.885523
  H      -3.027079     -5.208485     -0.249913
  H      -0.426930     -4.843631      3.150143
  H       0.064619     -2.494821      2.526922
  H      -0.541293     -1.579541     -1.881046
  H       1.928503     -1.785183     -1.963103
  H       1.944976     -1.590301     -0.182185
  H       3.632915      2.778668     -0.286008
  H       5.554546      3.020853      1.253316
  H       8.510534      2.181448      0.979148
  H       7.496716      1.873875      2.387367
  H       8.322610      0.532812      1.576852
  H       7.389986     -0.451984     -0.478659
  H       5.463738     -0.700685     -2.022834
  H       0.311591      0.508706     -2.884545
  H      -0.099658      1.348131     -1.366316
  H      -4.626949     -0.945305     -2.846445
  H      -3.518479      0.276466     -3.553442
  H      -3.150785     -1.460323     -3.701030
  H      -4.785495      1.088893     -1.785762
61
Coordinates from ORCA-job file E -2655.428926325294
  C      -6.262887      2.965237     -0.923216
  O      -5.354230      2.851091      0.179427
  C      -4.362515      1.948129      0.145389
  C      -3.540186      1.929157      1.280154
  C      -2.478333      1.042080      1.342249
  O      -1.639831      0.941094      2.392370
  C      -1.798490      1.828908      3.510534
  C      -2.224630      0.157016      0.257639
  S      -0.759201     -0.831109      0.421165
  C      -1.201490     -2.542533      0.776003
  C      -2.076203     -3.293067     -0.013163
  C      -2.348595     -4.608380      0.341700
  C      -1.747081     -5.158237      1.476580
  Cl     -2.095588     -6.807209      1.912185
  C      -0.877855     -4.407626      2.265871
  C      -0.605454     -3.088468      1.914966
  C       0.043070     -0.917777     -1.244041
  C       1.561228     -1.185618     -1.111377
  N       1.793630      0.275753     -1.286676
  S       3.051260      0.828834     -2.326062
  O       3.359854     -0.224494     -3.295792
  O       2.573690      2.136772     -2.767430
  C       4.437086      1.003187     -1.214636
  C       4.455346      2.062050     -0.305353
  C       5.544408      2.195292      0.545922
  C       6.620131      1.294873      0.498232
  C       7.812333      1.475759      1.402922
  C       6.574027      0.248909     -0.430531
  C       5.490545      0.095263     -1.292329
  C       0.401746      0.482745     -1.786044
  C      -3.080529      0.171587     -0.864016
  O      -2.800991     -0.711345     -1.854850
  C      -3.583597     -0.693519     -3.061531
  C      -4.142523      1.070993     -0.926273
  H      -6.953952      3.757688     -0.646273
  H      -6.816169      2.033617     -1.071317
  H      -5.733389      3.245401     -1.838090
  H      -3.763519      2.614318      2.084403
  H      -2.768030      1.676817      3.991145
  H      -1.000921      1.566088      4.201415
  H      -1.688352      2.869855      3.197098
  H      -2.546934     -2.858942     -0.884651
  H      -3.023821     -5.207962     -0.255459
  H      -0.423434     -4.846512      3.144791
  H       0.061246     -2.494317      2.528720
  H      -0.541947     -1.574708     -1.875416
  H       1.927068     -1.783527     -1.952027
  H       1.940842     -1.589452     -0.171020
  H       3.638785      2.772994     -0.276497
  H       5.567164      3.017218      1.253652
  H       8.522804      2.184243      0.963298
  H       7.518043      1.872758      2.377175
  H       8.342548      0.534590      1.560603
  H       7.399368     -0.452523     -0.487976
  H       5.465944     -0.703793     -2.022680
  H       0.315711      0.512124     -2.876158
  H      -0.097635      1.352389     -1.358953
  H      -4.626507     -0.942759     -2.851546
  H      -3.515455      0.279177     -3.554129
  H      -3.147872     -1.457558     -3.702011
  H      -4.789731      1.087525     -1.787981
61
Coordinates from ORCA-job file E -2655.428934070423
  C      -6.270681      2.960982     -0.925138
  O      -5.361521      2.848952      0.177299
  C      -4.368794      1.947149      0.143997
  C      -3.546792      1.929675      1.279040
  C      -2.483777      1.044010      1.341784
  O      -1.645402      0.944512      2.392117
  C      -1.805219      1.832564      3.509872
  C      -2.228878      0.158469      0.257808
  S      -0.762581     -0.827940      0.422591
  C      -1.202833     -2.540090      0.776453
  C      -2.078313     -3.290320     -0.012206
  C      -2.348294     -4.606612      0.340684
  C      -1.743537     -5.157914      1.473167
  Cl     -2.088807     -6.808205      1.906262
  C      -0.873597     -4.407696      2.262004
  C      -0.603765     -3.087469      1.913112
  C       0.041590     -0.913472     -1.241322
  C       1.558856     -1.184732     -1.107211
  N       1.794925      0.276523     -1.280404
  S       3.053579      0.826163     -2.320675
  O       3.360140     -0.229351     -3.288676
  O       2.577959      2.134183     -2.763756
  C       4.440745      1.000158     -1.210942
  C       4.461274      2.059333     -0.302089
  C       5.552555      2.192932      0.546310
  C       6.628176      1.292576      0.496150
  C       7.823056      1.474000      1.397225
  C       6.579600      0.246067     -0.431870
  C       5.493963      0.092105     -1.290846
  C       0.403616      0.487600     -1.779809
  C      -3.084282      0.171750     -0.864157
  O      -2.803670     -0.711404     -1.854481
  C      -3.584494     -0.693435     -3.062290
  C      -4.147542      1.069552     -0.927035
  H      -6.962707      3.752749     -0.648656
  H      -6.822795      2.028532     -1.072328
  H      -5.741830      3.241063     -1.840401
  H      -3.771059      2.614884      2.082980
  H      -2.774458      1.679236      3.990713
  H      -1.007168      1.571241      4.200764
  H      -1.696669      2.873562      3.196083
  H      -2.550781     -2.855276     -0.882284
  H      -3.023942     -5.205877     -0.256319
  H      -0.416612     -4.847769      3.138991
  H       0.063499     -2.493631      2.526570
  H      -0.544237     -1.567876     -1.874556
  H       1.924372     -1.782043     -1.948396
  H       1.936723     -1.590810     -0.167155
  H       3.644862      2.770365     -0.271065
  H       5.577148      3.015149      1.253638
  H       8.531501      2.183222      0.955541
  H       7.531616      1.870329      2.372597
  H       8.354481      0.533187      1.552821
  H       7.404711     -0.455472     -0.491149
  H       5.467558     -0.707128     -2.020927
  H       0.317972      0.520651     -2.869800
  H      -0.094119      1.357119     -1.350504
  H      -4.627680     -0.943030     -2.854116
  H      -3.515809      0.279423     -3.554513
  H      -3.147573     -1.457219     -3.702254
  H      -4.794259      1.084904     -1.789144
61
Coordinates from ORCA-job file E -2655.428936442444
  C      -6.272523      2.960785     -0.929132
  O      -5.364122      2.849290      0.173977
  C      -4.371647      1.947192      0.142096
  C      -3.551008      1.929728      1.278135
  C      -2.488185      1.043897      1.342255
  O      -1.650913      0.944596      2.393456
  C      -1.811741      1.832942      3.510796
  C      -2.232187      0.158059      0.258690
  S      -0.765551     -0.827477      0.424822
  C      -1.204777     -2.540069      0.777944
  C      -2.082969     -3.288879     -0.009116
  C      -2.351711     -4.605791      0.342155
  C      -1.742982     -5.159271      1.471454
  Cl     -2.086772     -6.810375      1.902596
  C      -0.870358     -4.410549      2.258719
  C      -0.601786     -3.089621      1.911447
  C       0.040147     -0.911628     -1.238051
  C       1.556781     -1.185052     -1.102997
  N       1.795530      0.275954     -1.274991
  S       3.054175      0.823586     -2.316178
  O       3.359500     -0.233412     -3.283064
  O       2.579000      2.131622     -2.759788
  C       4.442869      0.998530     -1.208647
  C       4.464414      2.057440     -0.299568
  C       5.557647      2.192149      0.546097
  C       6.634167      1.293084      0.493071
  C       7.831221      1.475797      1.390996
  C       6.584422      0.246562     -0.434908
  C       5.496856      0.091527     -1.291228
  C       0.404315      0.490253     -1.773325
  C      -3.086292      0.171343     -0.864181
  O      -2.804871     -0.712095     -1.854002
  C      -3.583106     -0.692914     -3.063443
  C      -4.149412      1.069209     -0.928401
  H      -6.964748      3.752672     -0.653494
  H      -6.824502      2.028248     -1.076272
  H      -5.743048      3.240431     -1.844169
  H      -3.775980      2.615087      2.081750
  H      -2.781332      1.679579      3.990922
  H      -1.014173      1.572011      4.202398
  H      -1.703132      2.873903      3.196880
  H      -2.558067     -2.852259     -0.876925
  H      -3.029503     -5.203833     -0.253650
  H      -0.410328     -4.852325      3.133246
  H       0.067537     -2.496936      2.523806
  H      -0.546226     -1.564020     -1.872833
  H       1.922247     -1.782079     -1.944394
  H       1.933321     -1.592607     -0.163050
  H       3.647305      2.767566     -0.266110
  H       5.583099      3.014299      1.253475
  H       8.536782      2.187154      0.948121
  H       7.541860      1.870184      2.367772
  H       8.365107      0.535925      1.543743
  H       7.410084     -0.454144     -0.496268
  H       5.469473     -0.707641     -2.021333
  H       0.318096      0.527396     -2.863088
  H      -0.092110      1.359157     -1.341165
  H      -4.626723     -0.942876     -2.857907
  H      -3.513422      0.280476     -3.554476
  H      -3.144741     -1.456061     -3.703193
  H      -4.795004      1.084381     -1.791375
61
Coordinates from ORCA-job file E -2655.428938064143
  C      -6.273627      2.960367     -0.929206
  O      -5.365004      2.849291      0.173761
  C      -4.372337      1.947392      0.141862
  C      -3.551660      1.930054      1.277871
  C      -2.488833      1.044222      1.342062
  O      -1.651797      0.944828      2.393435
  C      -1.812868      1.833067      3.510825
  C      -2.232783      0.158268      0.258547
  S      -0.766128     -0.827258      0.424854
  C      -1.205243     -2.539936      0.777745
  C      -2.083802     -3.288464     -0.009183
  C      -2.352244     -4.605533      0.341669
  C      -1.742958     -5.159420      1.470448
  Cl     -2.086473     -6.810725      1.901072
  C      -0.870000     -4.410969      2.257607
  C      -0.601606     -3.089907      1.910704
  C       0.039744     -0.910891     -1.237980
  C       1.556091     -1.185553     -1.102792
  N       1.796226      0.275286     -1.273936
  S       3.055087      0.822300     -2.315121
  O       3.360228     -0.235233     -3.281545
  O       2.580180      2.130401     -2.758983
  C       4.443972      0.997758     -1.207966
  C       4.466012      2.057489     -0.299906
  C       5.559509      2.192790      0.545303
  C       6.635840      1.293467      0.492822
  C       7.833218      1.476911      1.390143
  C       6.585565      0.246012     -0.434094
  C       5.497690      0.090351     -1.289902
  C       0.405089      0.491213     -1.771949
  C      -3.086844      0.171590     -0.864352
  O      -2.805777     -0.712263     -1.853890
  C      -3.584171     -0.693356     -3.063232
  C      -4.150024      1.069407     -0.928598
  H      -6.966225      3.751872     -0.653406
  H      -6.825106      2.027526     -1.076295
  H      -5.744453      3.240350     -1.844317
  H      -3.776737      2.615339      2.081516
  H      -2.782601      1.679710      3.990659
  H      -1.015490      1.572038      4.202606
  H      -1.704114      2.874058      3.197042
  H      -2.559363     -2.851495     -0.876546
  H      -3.030336     -5.203357     -0.254018
  H      -0.409535     -4.853068      3.131740
  H       0.068023     -2.497463      2.522970
  H      -0.547151     -1.562344     -1.873231
  H       1.921348     -1.782435     -1.944387
  H       1.932048     -1.594017     -0.162994
  H       3.649118      2.767886     -0.266974
  H       5.585357      3.015660      1.251831
  H       8.538147      2.188637      0.946847
  H       7.544134      1.871257      2.367021
  H       8.367709      0.537356      1.542707
  H       7.411065     -0.454923     -0.495016
  H       5.469868     -0.709567     -2.019168
  H       0.318736      0.529939     -2.861629
  H      -0.090667      1.359977     -1.338699
  H      -4.627662     -0.943724     -2.857536
  H      -3.514929      0.280061     -3.554261
  H      -3.145630     -1.456363     -3.703032
  H      -4.795824      1.084231     -1.791423
