61
Coordinates from ORCA-job file
  C   -6.27362726008623      2.96036690245763     -0.92920601050687
  O   -5.36500410567634      2.84929136556332      0.17376111001591
  C   -4.37233743428859      1.94739170035446      0.14186175081723
  C   -3.55165987703135      1.93005358632104      1.27787146059510
  C   -2.48883326454965      1.04422239379242      1.34206208770739
  O   -1.65179711015328      0.94482762198009      2.39343543786160
  C   -1.81286830858609      1.83306738111465      3.51082505806840
  C   -2.23278254150862      0.15826752822272      0.25854665371036
  S   -0.76612809138260     -0.82725766923592      0.42485379173349
  C   -1.20524316291682     -2.53993591398268      0.77774526579022
  C   -2.08380180621465     -3.28846422107248     -0.00918277516395
  C   -2.35224440183934     -4.60553267980946      0.34166925457468
  C   -1.74295812315115     -5.15941972830056      1.47044830172890
  Cl  -2.08647315805375     -6.81072541370999      1.90107201393094
  C   -0.86999993286922     -4.41096887631793      2.25760711054189
  C   -0.60160575445523     -3.08990659520666      1.91070369631549
  C   0.03974378477267     -0.91089064532203     -1.23798039036735
  C   1.55609118055583     -1.18555318929779     -1.10279244236657
  N   1.79622557550969      0.27528607666265     -1.27393642111815
  S   3.05508718701267      0.82230024739262     -2.31512139428016
  O   3.36022751295420     -0.23523322007604     -3.28154462062927
  O   2.58018022468864      2.13040138056145     -2.75898265002640
  C   4.44397200387999      0.99775769469427     -1.20796646554214
  C   4.46601190628982      2.05748933866419     -0.29990624698744
  C   5.55950861556032      2.19279046560934      0.54530293468220
  C   6.63583978964590      1.29346702054656      0.49282178205019
  C   7.83321837224284      1.47691103286269      1.39014263180328
  C   6.58556542564794      0.24601155571940     -0.43409414278681
  C   5.49769003573063      0.09035114111287     -1.28990221692361
  C   0.40508857122763      0.49121264807576     -1.77194934535765
  C   -3.08684402142116      0.17158974368742     -0.86435225367002
  O   -2.80577699276955     -0.71226250634328     -1.85388963586222
  C   -3.58417135243784     -0.69335577764367     -3.06323213100176
  C   -4.15002429597632      1.06940667577430     -0.92859769273548
  H   -6.96622462130605      3.75187172288709     -0.65340618225584
  H   -6.82510567272575      2.02752633199859     -1.07629462962041
  H   -5.74445284649921      3.24035007931381     -1.84431670413530
  H   -3.77673668988865      2.61533868159438      2.08151630029821
  H   -2.78260068247708      1.67971037497283      3.99065853004833
  H   -1.01549000658769      1.57203843972741      4.20260610114362
  H   -1.70411381136670      2.87405806605482      3.19704182595857
  H   -2.55936347712970     -2.85149544551607     -0.87654579553036
  H   -3.03033582367025     -5.20335656925469     -0.25401844145015
  H   -0.40953489491459     -4.85306806621990      3.13173993330989
  H   0.06802299787433     -2.49746347888472      2.52297020135329
  H   -0.54715086332573     -1.56234449966596     -1.87323063847498
  H   1.92134793568613     -1.78243469645323     -1.94438725495284
  H   1.93204828110680     -1.59401702476143     -0.16299380227458
  H   3.64911758586462      2.76788558510612     -0.26697358155662
  H   5.58535655723686      3.01565990078002      1.25183098754463
  H   8.53814658445163      2.18863708646121      0.94684651274077
  H   7.54413384874433      1.87125749187001      2.36702095743070
  H   8.36770946821533      0.53735627073342      1.54270696386570
  H   7.41106532158325     -0.45492280135406     -0.49501596729126
  H   5.46986846296623     -0.70956741578937     -2.01916835527584
  H   0.31873627518715      0.52993931289945     -2.86162891964323
  H   -0.09066693695951      1.35997722268941     -1.33869870380197
  H   -4.62766233392260     -0.94372376493239     -2.85753605530343
  H   -3.51492925883600      0.28006136205444     -3.55426142417007
  H   -3.14563027347193     -1.45636270178918     -3.70303208781599
  H   -4.79582431618626      1.08423147062667     -1.79142327674221
