16
Coordinates from ORCA-job file E -268.078246934914
  C      -1.054400      0.956900      0.147500
  C      -1.321300     -0.520800     -0.180200
  N      -0.258400     -1.380900      0.355200
  C       1.054400     -0.956900     -0.147500
  C       1.321300      0.520800      0.180200
  N       0.258400      1.380900     -0.355200
  H      -1.105100      1.116100      1.247200
  H      -1.845100      1.583500     -0.318600
  H      -1.395800     -0.656900     -1.281600
  H      -2.295000     -0.823400      0.261600
  H      -0.259100     -1.306600      1.400200
  H       1.845100     -1.583500      0.318600
  H       1.105100     -1.116100     -1.247200
  H       2.295000      0.823400     -0.261600
  H       1.395800      0.656900      1.281600
  H       0.259100      1.306600     -1.400200
16
Coordinates from ORCA-job file E -268.082611335545
  C      -1.052347      0.959700      0.129335
  C      -1.320809     -0.524023     -0.161908
  N      -0.261780     -1.399236      0.350841
  C       1.052347     -0.959700     -0.129337
  C       1.320810      0.524023      0.161906
  N       0.261780      1.399237     -0.350841
  H      -1.087176      1.129185      1.215300
  H      -1.824320      1.592625     -0.324627
  H      -1.384608     -0.675578     -1.249249
  H      -2.279069     -0.839294      0.268131
  H      -0.268437     -1.359577      1.364873
  H       1.824319     -1.592625      0.324630
  H       1.087176     -1.129188     -1.215301
  H       2.279070      0.839294     -0.268129
  H       1.384606      0.675575      1.249249
  H       0.268438      1.359580     -1.364873
16
Coordinates from ORCA-job file E -268.082802307129
  C      -1.053754      0.960680      0.124896
  C      -1.322515     -0.524316     -0.157431
  N      -0.262297     -1.402370      0.345728
  C       1.053754     -0.960676     -0.124886
  C       1.322518      0.524324      0.157420
  N       0.262293      1.402375     -0.345731
  H      -1.092704      1.137019      1.210013
  H      -1.823668      1.592787     -0.333841
  H      -1.392484     -0.680767     -1.244073
  H      -2.278686     -0.839656      0.277360
  H      -0.274231     -1.391384      1.362725
  H       1.823669     -1.592780      0.333855
  H       1.092714     -1.137041     -1.209999
  H       2.278691      0.839655     -0.277371
  H       1.392484      0.680774      1.244063
  H       0.274215      1.391377     -1.362729
16
Coordinates from ORCA-job file E -268.082838242795
  C      -1.055084      0.961395      0.122971
  C      -1.324003     -0.524445     -0.155520
  N      -0.262283     -1.402592      0.343065
  C       1.055085     -0.961395     -0.122959
  C       1.324003      0.524451      0.155510
  N       0.262277      1.402594     -0.343071
  H      -1.099350      1.141698      1.207474
  H      -1.823406      1.591754     -0.341348
  H      -1.400253     -0.682559     -1.241725
  H      -2.278205     -0.838766      0.284887
  H      -0.277625     -1.410443      1.359527
  H       1.823402     -1.591746      0.341377
  H       1.099371     -1.141716     -1.207459
  H       2.278202      0.838765     -0.284910
  H       1.400264      0.682574      1.241713
  H       0.277605      1.410431     -1.359533
16
Coordinates from ORCA-job file E -268.082839621203
  C      -1.055285      0.961454      0.122925
  C      -1.324209     -0.524434     -0.155488
  N      -0.262237     -1.402427      0.342516
  C       1.055286     -0.961454     -0.122918
  C       1.324209      0.524437      0.155483
  N       0.262234      1.402427     -0.342520
  H      -1.100853      1.142237      1.207249
  H      -1.823129      1.591252     -0.342824
  H      -1.401854     -0.682502     -1.241553
  H      -2.277803     -0.838391      0.286372
  H      -0.278061     -1.412923      1.358975
  H       1.823126     -1.591247      0.342844
  H       1.100866     -1.142247     -1.207240
  H       2.277800      0.838390     -0.286387
  H       1.401862      0.682514      1.241546
  H       0.278049      1.412914     -1.358979
