16
Coordinates from ORCA-job file
  C   -1.05528501253122      0.96145436917626      0.12292454249675
  C   -1.32420851253390     -0.52443424363250     -0.15548797808930
  N   -0.26223712155052     -1.40242705560119      0.34251592718529
  C   1.05528573485400     -0.96145434804970     -0.12291769625622
  C   1.32420869643795      0.52443731836095      0.15548280978691
  N   0.26223356940737      1.40242719836793     -0.34251987372361
  H   -1.10085307083504      1.14223729026588      1.20724867134517
  H   -1.82312939465457      1.59125170425357     -0.34282384575941
  H   -1.40185437645691     -0.68250241725953     -1.24155330353976
  H   -2.27780271051211     -0.83839118163578      0.28637191683469
  H   -0.27806101044143     -1.41292315164586      1.35897459705481
  H   1.82312599661649     -1.59124707593487      0.34284365855975
  H   1.10086634024946     -1.14224689624804     -1.20723967315354
  H   2.27779957036973      0.83839020713978     -0.28638697438063
  H   1.40186249547083      0.68251400963276      1.24154616112569
  H   0.27804880610987      1.41291427281033     -1.35897893948658
