20
Coordinates from ORCA-job file
  C   -1.36623498962318      0.75575046128765      0.07261211191790
  C   -1.23599394446858     -0.52828277883721     -0.78971340095232
  C   0.21104641734573     -1.02945943409726     -0.70082063851452
  C   0.55907962798658     -1.32079651357309      0.76873816414635
  N   0.47802558869091     -0.05931704877181      1.53890612412459
  C   0.00874390020826      1.05201063059934      0.69807581233481
  C   1.03398233401229      1.24359190144566     -0.42418458230670
  N   1.08502668708513      0.01635817456135     -1.25216755260520
  H   -2.10904137192911      0.62552335043301      0.86953650861788
  H   -1.69315757212794      1.60869382661700     -0.53451385773834
  H   -1.91834525216821     -1.31164036049161     -0.43921123563280
  H   -1.47420702607465     -0.32519317781708     -1.83844809006378
  H   0.33885745554885     -1.93514185869482     -1.30392060147072
  H   1.57690444597509     -1.73153603653658      0.83395526520256
  H   -0.12625113910896     -2.08051565196453      1.17166129920445
  H   -0.13488707773858     -0.16707826749114      2.33844893622467
  H   -0.02890766395231      1.95577202118624      1.31626553472101
  H   0.74698923739289      2.10302113857732     -1.04535310111715
  H   2.01207773635950      1.45777891901225      0.02331038072454
  H   2.03619260658630     -0.32963929544468     -1.30317707681723
