20
Coordinates from ORCA-job file E -345.546700588200
  C      -1.355200      0.751700      0.089500
  C      -1.237300     -0.523400     -0.781900
  C       0.213300     -1.045900     -0.730700
  C       0.569400     -1.306000      0.754700
  N       0.458700     -0.060300      1.553600
  C       0.020800      1.077200      0.718800
  C       1.042100      1.238100     -0.430200
  N       1.103200      0.008700     -1.260400
  H      -2.106900      0.595100      0.893500
  H      -1.697700      1.608100     -0.531800
  H      -1.935600     -1.306000     -0.412100
  H      -1.510800     -0.291500     -1.834300
  H       0.314400     -1.975800     -1.331600
  H       1.611600     -1.683800      0.822800
  H      -0.098600     -2.094900      1.168400
  H      -0.239100     -0.203400      2.321400
  H      -0.032800      2.005100      1.328600
  H       0.751200      2.095300     -1.074300
  H       2.043600      1.465900     -0.000600
  H       2.085600     -0.354300     -1.263400
20
Coordinates from ORCA-job file E -345.551674468301
  C      -1.362432      0.761421      0.077590
  C      -1.235688     -0.521969     -0.785268
  C       0.208675     -1.031324     -0.703948
  C       0.569573     -1.315762      0.763752
  N       0.462342     -0.062709      1.547184
  C       0.013265      1.054395      0.701358
  C       1.035012      1.235926     -0.425678
  N       1.090843      0.008311     -1.254312
  H      -2.104013      0.627492      0.874850
  H      -1.692101      1.613823     -0.528448
  H      -1.919449     -1.302409     -0.431869
  H      -1.481989     -0.314750     -1.830929
  H       0.323758     -1.940999     -1.302877
  H       1.599159     -1.697874      0.819170
  H      -0.088228     -2.095095      1.173455
  H      -0.195554     -0.187074      2.304045
  H      -0.020720      1.962493      1.312677
  H       0.742497      2.091975     -1.048588
  H       2.016541      1.457105      0.010192
  H       2.038409     -0.343076     -1.272354
20
Coordinates from ORCA-job file E -345.551816891360
  C      -1.365168      0.759497      0.073541
  C      -1.237566     -0.526463     -0.786162
  C       0.208911     -1.029270     -0.700983
  C       0.565831     -1.318277      0.766336
  N       0.470767     -0.060581      1.543405
  C       0.010255      1.052121      0.698419
  C       1.035423      1.240058     -0.424110
  N       1.085094      0.013855     -1.255077
  H      -2.107705      0.631698      0.871008
  H      -1.691209      1.612194     -0.534087
  H      -1.919269     -1.308752     -0.432463
  H      -1.479500     -0.325108     -1.834186
  H       0.332758     -1.935671     -1.303579
  H       1.590174     -1.713341      0.824566
  H      -0.103852     -2.089112      1.173202
  H      -0.170115     -0.177675      2.320270
  H      -0.023786      1.957174      1.314719
  H       0.748017      2.099888     -1.044115
  H       2.014779      1.454026      0.020292
  H       2.036061     -0.336362     -1.290994
20
Coordinates from ORCA-job file E -345.551849962825
  C      -1.366264      0.757448      0.071451
  C      -1.237620     -0.529132     -0.787452
  C       0.209983     -1.028925     -0.700515
  C       0.562122     -1.319935      0.767968
  N       0.475353     -0.059730      1.540625
  C       0.008628      1.051773      0.697868
  C       1.035385      1.242742     -0.422947
  N       1.083018      0.017092     -1.254023
  H      -2.110085      0.631368      0.868193
  H      -1.690551      1.609992     -0.537715
  H      -1.918519     -1.312268     -0.433431
  H      -1.477953     -0.329644     -1.836449
  H       0.338050     -1.934232     -1.304298
  H       1.582467     -1.724890      0.830141
  H      -0.117506     -2.083931      1.172208
  H      -0.147424     -0.170577      2.332409
  H      -0.027977      1.955564      1.316251
  H       0.751160      2.104440     -1.042169
  H       2.013691      1.453121      0.026075
  H       2.033943     -0.330377     -1.304191
20
Coordinates from ORCA-job file E -345.551853572113
  C      -1.366220      0.756566      0.071680
  C      -1.236777     -0.529028     -0.788502
  C       0.210664     -1.029215     -0.700746
  C       0.560410     -1.320420      0.768407
  N       0.476561     -0.059603      1.539577
  C       0.008513      1.051940      0.698113
  C       1.034777      1.243288     -0.423202
  N       1.083630      0.017124     -1.253042
  H      -2.109980      0.628802      0.868130
  H      -1.691291      1.609107     -0.537016
  H      -1.918146     -1.312203     -0.435633
  H      -1.476484     -0.328131     -1.837318
  H       0.338790     -1.934670     -1.304157
  H       1.579334     -1.728633      0.832501
  H      -0.122572     -2.081997      1.171684
  H      -0.139686     -0.168527      2.336538
  H      -0.029025      1.955637      1.316439
  H       0.749806      2.104216     -1.043189
  H       2.012920      1.454902      0.025484
  H       2.034675     -0.329256     -1.305751
20
Coordinates from ORCA-job file E -345.551854717077
  C      -1.366235      0.755750      0.072612
  C      -1.235994     -0.528283     -0.789713
  C       0.211046     -1.029459     -0.700821
  C       0.559080     -1.320797      0.768738
  N       0.478026     -0.059317      1.538906
  C       0.008744      1.052011      0.698076
  C       1.033982      1.243592     -0.424185
  N       1.085027      0.016358     -1.252168
  H      -2.109041      0.625523      0.869537
  H      -1.693158      1.608694     -0.534514
  H      -1.918345     -1.311640     -0.439211
  H      -1.474207     -0.325193     -1.838448
  H       0.338857     -1.935142     -1.303921
  H       1.576904     -1.731536      0.833955
  H      -0.126251     -2.080516      1.171661
  H      -0.134887     -0.167078      2.338449
  H      -0.028908      1.955772      1.316266
  H       0.746989      2.103021     -1.045353
  H       2.012078      1.457779      0.023310
  H       2.036193     -0.329639     -1.303177
