25
Coordinates from ORCA-job file
  C   3.48400431255455      1.01112398694073      1.57122892371869
  C   2.26894189426584      0.36029662597162      0.95825860522241
  C   2.08004648034060      0.35953426769585     -0.43000822651152
  C   0.98153430590134     -0.26915018249999     -1.00860368731447
  C   0.04589727093151     -0.89981188636451     -0.18588262889140
  S   -1.40421097889249     -1.67912784255906     -0.91685963490101
  O   -1.93512033537572     -2.62613655753673      0.05963677208728
  O   -1.05748928071192     -2.05543415833834     -2.28345475843055
  N   -2.57818584742123     -0.47625124091095     -1.06370490782680
  C   -3.13755425826052      0.32403965451110      0.05570905381843
  C   -3.24573299673902      1.55559466917380     -0.80610874690753
  C   -2.43039425487198      0.79462322852625     -1.81873595896730
  C   0.21357327092745     -0.91984053019423      1.19853616762257
  C   1.32193788610423     -0.29002494487480      1.75854693985668
  H   3.29574527547329      1.31649256828936      2.60269805431461
  H   3.79416866139848      1.89178048445255      1.00400972123266
  H   4.32996388855498      0.31496211508170      1.58330430902576
  H   2.80898758128664      0.84748226862757     -1.06908953573843
  H   0.86349328619179     -0.29938639643490     -2.08522922329165
  H   -4.05069163093352     -0.06335175422028      0.51641454189742
  H   -2.41888626439983      0.55263990245784      0.86260294992860
  H   -1.41408549775898      1.22771954056960     -1.79914591454475
  H   -2.77269491210580      0.78421212352101     -2.85736802829267
  H   -0.50022479122777     -1.44820466459851      1.81892413960653
  H   1.45697693476807     -0.31378127728671      2.83492107328645
