25
Coordinates from ORCA-job file E -990.585928876282
  C       3.477500      1.018300      1.574100
  C       2.254000      0.406600      0.958700
  C       2.100100      0.383200     -0.435400
  C       0.977700     -0.219600     -1.010600
  C      -0.004500     -0.807700     -0.200200
  S      -1.419100     -1.583800     -0.930300
  O      -1.842600     -2.735000     -0.061300
  O      -1.029600     -2.136500     -2.272800
  N      -2.785000     -0.505800     -1.140700
  C      -3.069600      0.249700      0.082700
  C      -2.641500      1.566900     -0.527100
  C      -2.385900      0.752900     -1.777000
  C       0.168000     -0.815600      1.191700
  C       1.290200     -0.213100      1.767900
  H       3.249700      1.416400      2.585900
  H       3.850900      1.858700      0.950800
  H       4.272600      0.248500      1.658100
  H       2.849800      0.829400     -1.077200
  H       0.878800     -0.230200     -2.088400
  H      -4.158400      0.242800      0.304000
  H      -2.455600     -0.029300      0.963500
  H      -1.327400      0.801100     -2.105400
  H      -3.095400      1.025200     -2.587600
  H      -0.562800     -1.291300      1.832900
  H       1.408100     -0.231800      2.844300
25
Coordinates from ORCA-job file E -990.605016276664
  C       3.463104      1.029000      1.571871
  C       2.240711      0.401383      0.952446
  C       2.083357      0.371969     -0.439670
  C       0.973468     -0.239253     -1.017719
  C       0.002736     -0.832048     -0.204783
  S      -1.400706     -1.643669     -0.940695
  O      -1.848192     -2.722765     -0.021633
  O      -1.012067     -2.108163     -2.298379
  N      -2.729702     -0.531225     -1.127322
  C      -3.053266      0.263158      0.096595
  C      -2.665035      1.588673     -0.528787
  C      -2.367916      0.768964     -1.769293
  C       0.162917     -0.834015      1.184153
  C       1.275469     -0.220922      1.755278
  H       3.240757      1.422089      2.569652
  H       3.833721      1.856896      0.958043
  H       4.261187      0.281494      1.663772
  H       2.832200      0.821863     -1.081101
  H       0.877007     -0.267327     -2.096600
  H      -4.130650      0.236459      0.317473
  H      -2.469868      0.027028      0.994933
  H      -1.329820      0.868498     -2.109037
  H      -3.066105      1.022063     -2.580898
  H      -0.564666     -1.324934      1.819543
  H       1.391359     -0.235216      2.832758
25
Coordinates from ORCA-job file E -990.613536532650
  C       3.459746      1.033568      1.571448
  C       2.239209      0.395415      0.950348
  C       2.070788      0.371490     -0.439541
  C       0.970235     -0.248826     -1.020748
  C       0.012289     -0.849264     -0.203072
  S      -1.394706     -1.682361     -0.939936
  O      -1.874957     -2.671012      0.025099
  O      -1.016536     -2.072108     -2.298282
  N      -2.675449     -0.548261     -1.114741
  C      -3.048797      0.274703      0.096822
  C      -2.714502      1.594641     -0.554433
  C      -2.355373      0.776045     -1.770934
  C       0.169133     -0.856866      1.182624
  C       1.277551     -0.236647      1.747703
  H       3.243501      1.413922      2.570046
  H       3.825258      1.862918      0.965547
  H       4.268334      0.302591      1.660212
  H       2.814668      0.833829     -1.079889
  H       0.867939     -0.285318     -2.098981
  H      -4.121786      0.213123      0.313988
  H      -2.493669      0.080759      1.018120
  H      -1.329365      0.923672     -2.117600
  H      -3.040450      0.995784     -2.598410
  H      -0.551951     -1.367507      1.809690
  H       1.398889     -0.254287      2.825522
25
Coordinates from ORCA-job file E -990.615402628786
  C       3.469487      1.030852      1.571893
  C       2.252083      0.384743      0.955069
  C       2.066547      0.379196     -0.432730
  C       0.967504     -0.246199     -1.012574
  C       0.023224     -0.863913     -0.191521
  S      -1.399558     -1.689105     -0.926854
  O      -1.902984     -2.639949      0.054371
  O      -1.024897     -2.056053     -2.284300
  N      -2.647018     -0.540562     -1.105788
  C      -3.064979      0.296386      0.082229
  C      -2.812268      1.605464     -0.612019
  C      -2.362852      0.780946     -1.786163
  C       0.191182     -0.886185      1.192625
  C       1.299885     -0.260541      1.753185
  H       3.260150      1.394082      2.579506
  H       3.821235      1.872070      0.972071
  H       4.291374      0.311383      1.644942
  H       2.799612      0.859503     -1.073003
  H       0.856596     -0.280412     -2.089743
  H      -4.132574      0.177336      0.309583
  H      -2.509368      0.157152      1.014739
  H      -1.334984      0.969694     -2.110768
  H      -3.020425      0.946232     -2.649877
  H      -0.518821     -1.416208      1.815729
  H       1.431849     -0.285914      2.829998
25
Coordinates from ORCA-job file E -990.616579374428
  C       3.478904      1.024249      1.578805
  C       2.265835      0.375967      0.959740
  C       2.086716      0.365370     -0.429167
  C       0.988952     -0.260543     -1.012390
  C       0.039849     -0.874106     -0.192929
  S      -1.397552     -1.680375     -0.932951
  O      -1.906552     -2.631899      0.045334
  O      -1.029377     -2.024567     -2.298052
  N      -2.625565     -0.523927     -1.090094
  C      -3.075876      0.306492      0.083674
  C      -2.931361      1.604006     -0.652161
  C      -2.399832      0.790525     -1.793240
  C       0.198506     -0.887872      1.192771
  C       1.306542     -0.261140      1.756260
  H       3.266146      1.389292      2.586204
  H       3.834255      1.863838      0.976792
  H       4.303166      0.306378      1.658034
  H       2.824463      0.842496     -1.066527
  H       0.885273     -0.306394     -2.089685
  H      -4.125516      0.113809      0.348799
  H      -2.492427      0.228750      1.008687
  H      -1.374972      1.032358     -2.097032
  H      -3.032813      0.897214     -2.686068
  H      -0.519263     -1.412208      1.811712
  H       1.432496     -0.277712      2.834084
25
Coordinates from ORCA-job file E -990.617557038059
  C       3.490461      1.020537      1.574692
  C       2.277572      0.369529      0.961084
  C       2.090370      0.365342     -0.427213
  C       0.990471     -0.261407     -1.006427
  C       0.050352     -0.884956     -0.184112
  S      -1.401152     -1.671958     -0.920975
  O      -1.922878     -2.617556      0.061746
  O      -1.036355     -2.030138     -2.287432
  N      -2.601638     -0.499973     -1.080124
  C      -3.114211      0.315151      0.067516
  C      -3.031291      1.599727     -0.697021
  C      -2.405992      0.800622     -1.798074
  C       0.217001     -0.904129      1.200987
  C       1.326420     -0.275571      1.761327
  H       3.284253      1.375692      2.587446
  H       3.835850      1.867107      0.975859
  H       4.321206      0.308082      1.641548
  H       2.821877      0.850186     -1.065751
  H       0.876851     -0.300447     -2.083065
  H      -4.148454      0.060707      0.343128
  H      -2.528200      0.294965      0.995779
  H      -1.375312      1.088110     -2.044154
  H      -2.980937      0.861084     -2.734092
  H      -0.496347     -1.434797      1.819847
  H       1.460083     -0.295909      2.838080
25
Coordinates from ORCA-job file E -990.618369115115
  C       3.500277      1.013206      1.576123
  C       2.285905      0.364933      0.962593
  C       2.101662      0.358376     -0.426319
  C       1.000866     -0.266896     -1.005144
  C       0.059123     -0.887613     -0.182457
  S      -1.397606     -1.661142     -0.918892
  O      -1.922649     -2.614710      0.058498
  O      -1.039080     -2.026736     -2.288173
  N      -2.580425     -0.479164     -1.066726
  C      -3.139687      0.315838      0.061888
  C      -3.122479      1.589140     -0.730239
  C      -2.429733      0.806063     -1.805370
  C       0.223307     -0.904171      1.202594
  C       1.333454     -0.277591      1.763502
  H       3.296064      1.366001      2.590028
  H       3.845535      1.861067      0.979127
  H       4.330549      0.299981      1.639750
  H       2.835859      0.839595     -1.064370
  H       0.886748     -0.306640     -2.081830
  H      -4.147865      0.002562      0.367658
  H      -2.534230      0.362050      0.978594
  H      -1.402511      1.145919     -2.000262
  H      -2.955055      0.826239     -2.770771
  H      -0.494543     -1.429888      1.820584
  H       1.466516     -0.296422      2.840213
25
Coordinates from ORCA-job file E -990.618917509728
  C       3.506556      1.007065      1.576427
  C       2.289630      0.360414      0.964240
  C       2.099424      0.362066     -0.423917
  C       0.997841     -0.262753     -1.001224
  C       0.062299     -0.891554     -0.177695
  S      -1.395962     -1.658431     -0.910002
  O      -1.927208     -2.610491      0.066088
  O      -1.044629     -2.037598     -2.277911
  N      -2.561710     -0.463974     -1.056099
  C      -3.157661      0.322544      0.052153
  C      -3.196072      1.578805     -0.774350
  C      -2.441972      0.803570     -1.819659
  C       0.232267     -0.915414      1.206250
  C       1.343275     -0.289958      1.765782
  H       3.308386      1.347929      2.595195
  H       3.843294      1.863248      0.987166
  H       4.339563      0.296531      1.625370
  H       2.829326      0.849309     -1.062280
  H       0.876270     -0.292315     -2.077485
  H      -4.137500     -0.034501      0.393608
  H      -2.531778      0.444727      0.949528
  H      -1.421094      1.192633     -1.955524
  H      -2.912082      0.789306     -2.811190
  H      -0.482352     -1.445252      1.824525
  H       1.481890     -0.315907      2.841602
25
Coordinates from ORCA-job file E -990.619261308012
  C       3.512392      1.001376      1.575026
  C       2.293365      0.356832      0.962726
  C       2.103759      0.356835     -0.425391
  C       1.002072     -0.267709     -1.002503
  C       0.065029     -0.893845     -0.178444
  S      -1.392082     -1.658738     -0.908049
  O      -1.926677     -2.608864      0.065832
  O      -1.048683     -2.041690     -2.275326
  N      -2.548189     -0.454221     -1.049062
  C      -3.177944      0.317328      0.047104
  C      -3.272819      1.558090     -0.805296
  C      -2.450771      0.806302     -1.821863
  C       0.233557     -0.914471      1.205620
  C       1.345270     -0.290207      1.764539
  H       3.316264      1.338284      2.595246
  H       3.846881      1.860497      0.989130
  H       4.344858      0.290352      1.618351
  H       2.834851      0.841572     -1.064365
  H       0.881296     -0.297440     -2.078857
  H      -4.126647     -0.081951      0.422489
  H      -2.534875      0.514119      0.920500
  H      -1.443347      1.249617     -1.883835
  H      -2.856911      0.772105     -2.838874
  H      -0.483322     -1.439498      1.825322
  H       1.482676     -0.314675      2.840581
25
Coordinates from ORCA-job file E -990.619379118083
  C       3.513150      1.001478      1.570965
  C       2.294381      0.355398      0.959106
  C       2.107423      0.348558     -0.429208
  C       1.005984     -0.276923     -1.005775
  C       0.065759     -0.897407     -0.180977
  S      -1.390845     -1.662455     -0.909223
  O      -1.928332     -2.609259      0.064114
  O      -1.050977     -2.043638     -2.276246
  N      -2.545243     -0.451898     -1.048912
  C      -3.191891      0.308632      0.044949
  C      -3.308516      1.544919     -0.813840
  C      -2.446614      0.812972     -1.813939
  C       0.231539     -0.911175      1.203688
  C       1.342767     -0.285226      1.761770
  H       3.316276      1.339532      2.590581
  H       3.846688      1.860400      0.984299
  H       4.345610      0.290669      1.614765
  H       2.840125      0.829251     -1.069465
  H       0.887739     -0.310216     -2.082295
  H      -4.125371     -0.111135      0.433137
  H      -2.542285      0.539988      0.906081
  H      -1.448032      1.282261     -1.820569
  H      -2.808805      0.780066     -2.846459
  H      -0.487312     -1.430739      1.825660
  H       1.476783     -0.304052      2.838392
25
Coordinates from ORCA-job file E -990.619460091895
  C       3.509839      1.002128      1.571579
  C       2.291768      0.355410      0.959184
  C       2.104972      0.348485     -0.429075
  C       1.003925     -0.277190     -1.006318
  C       0.063580     -0.898581     -0.182383
  S      -1.391260     -1.666697     -0.911413
  O      -1.929288     -2.611976      0.061872
  O      -1.050436     -2.043510     -2.278447
  N      -2.551309     -0.456073     -1.051798
  C      -3.185171      0.310595      0.046908
  C      -3.309548      1.542895     -0.816242
  C      -2.447838      0.810305     -1.815806
  C       0.229042     -0.912248      1.202519
  C       1.339498     -0.285224      1.761097
  H       3.313240      1.336379      2.592501
  H       3.840511      1.863737      0.987191
  H       4.343722      0.292781      1.611781
  H       2.837363      0.829461     -1.069521
  H       0.886670     -0.309735     -2.082946
  H      -4.111084     -0.109236      0.451574
  H      -2.520900      0.554351      0.893808
  H      -1.449825      1.282062     -1.807597
  H      -2.801233      0.778646     -2.850961
  H      -0.488555     -1.432692      1.825204
  H       1.472318     -0.304075      2.837891
25
Coordinates from ORCA-job file E -990.619554238130
  C       3.501250      1.004757      1.571296
  C       2.283946      0.357359      0.958846
  C       2.095471      0.352844     -0.429187
  C       0.994944     -0.273431     -1.006916
  C       0.056274     -0.898470     -0.183892
  S      -1.395224     -1.673854     -0.913999
  O      -1.932135     -2.616659      0.061642
  O      -1.050182     -2.046803     -2.280553
  N      -2.566794     -0.467053     -1.059940
  C      -3.167967      0.314496      0.049724
  C      -3.288268      1.545777     -0.813210
  C      -2.441800      0.804056     -1.817010
  C       0.222876     -0.914057      1.201022
  C       1.332729     -0.286036      1.759953
  H       3.307039      1.329820      2.595652
  H       3.825506      1.872354      0.992090
  H       4.338474      0.298808      1.602343
  H       2.826210      0.835779     -1.070071
  H       0.878110     -0.304369     -2.083611
  H      -4.088641     -0.093828      0.476540
  H      -2.479159      0.557941      0.877353
  H      -1.437494      1.262987     -1.794683
  H      -2.788738      0.781745     -2.854110
  H      -0.491825     -1.437447      1.824576
  H       1.465397     -0.306713      2.836745
25
Coordinates from ORCA-job file E -990.619593590763
  C       3.493019      1.007152      1.571956
  C       2.276498      0.359067      0.959095
  C       2.086849      0.357755     -0.428881
  C       0.987067     -0.269279     -1.007211
  C       0.050331     -0.898170     -0.184808
  S      -1.399422     -1.677228     -0.915785
  O      -1.933633     -2.621053      0.060996
  O      -1.051815     -2.049740     -2.282350
  N      -2.576267     -0.473901     -1.063745
  C      -3.150116      0.319696      0.053107
  C      -3.264982      1.550456     -0.809763
  C      -2.437404      0.797624     -1.819494
  C       0.217977     -0.916736      1.199851
  C       1.327292     -0.288281      1.759434
  H       3.301040      1.324097      2.599282
  H       3.812022      1.879946      0.997592
  H       4.333377      0.304557      1.595318
  H       2.816024      0.843684     -1.069268
  H       0.869714     -0.298523     -2.083905
  H      -4.067596     -0.076349      0.497769
  H      -2.443115      0.556198      0.867483
  H      -1.426415      1.242215     -1.798803
  H      -2.786060      0.781237     -2.856000
  H      -0.495262     -1.442958      1.822688
  H       1.460875     -0.311463      2.836043
25
Coordinates from ORCA-job file E -990.619613465418
  C       3.486175      1.009782      1.571698
  C       2.270536      0.360295      0.958674
  C       2.080684      0.360478     -0.429395
  C       0.981688     -0.267584     -1.007971
  C       0.046271     -0.898740     -0.185568
  S      -1.403212     -1.678852     -0.916730
  O      -1.934914     -2.624527      0.060539
  O      -1.055021     -2.053382     -2.283352
  N      -2.580036     -0.476918     -1.064849
  C      -3.138559      0.323059      0.055404
  C      -3.247964      1.554316     -0.806736
  C      -2.432092      0.794241     -1.819725
  C       0.214476     -0.919190      1.198834
  C       1.323209     -0.289995      1.758782
  H       3.296176      1.320215      2.601369
  H       3.800487      1.886867      1.001253
  H       4.329595      0.310635      1.588911
  H       2.809030      0.848519     -1.069091
  H       0.863750     -0.296604     -2.084623
  H      -4.053540     -0.064776      0.512175
  H      -2.420835      0.552649      0.862587
  H      -1.416409      1.228403     -1.800316
  H      -2.778803      0.782699     -2.856889
  H      -0.498551     -1.447175      1.820415
  H       1.457858     -0.314415      2.835203
25
Coordinates from ORCA-job file E -990.619618699749
  C       3.484350      1.010791      1.571348
  C       2.269116      0.360430      0.958314
  C       2.079937      0.360066     -0.429901
  C       0.981301     -0.268463     -1.008510
  C       0.045755     -0.899328     -0.185877
  S      -1.404166     -1.678886     -0.916944
  O      -1.935003     -2.625766      0.059871
  O      -1.056831     -2.054842     -2.283600
  N      -2.578924     -0.476552     -1.064093
  C      -3.137291      0.323649      0.055831
  C      -3.245578      1.555261     -0.805942
  C      -2.430593      0.794345     -1.818941
  C       0.213608     -0.919612      1.198504
  C       1.322110     -0.290058      1.758529
  H       3.295303      1.318432      2.602013
  H       3.796406      1.889834      1.002672
  H       4.329277      0.313405      1.585826
  H       2.808651      0.848129     -1.069151
  H       0.863333     -0.298395     -2.085148
  H      -4.050961     -0.063460      0.515752
  H      -2.418393      0.551897      0.862534
  H      -1.414227      1.227146     -1.799474
  H      -2.774240      0.783938     -2.857129
  H      -0.500022     -1.447816      1.819211
  H       1.457082     -0.314146      2.834905
25
Coordinates from ORCA-job file E -990.619619168707
  C       3.484004      1.011124      1.571229
  C       2.268942      0.360297      0.958259
  C       2.080046      0.359534     -0.430008
  C       0.981534     -0.269150     -1.008604
  C       0.045897     -0.899812     -0.185883
  S      -1.404211     -1.679128     -0.916860
  O      -1.935120     -2.626137      0.059637
  O      -1.057489     -2.055434     -2.283455
  N      -2.578186     -0.476251     -1.063705
  C      -3.137554      0.324040      0.055709
  C      -3.245733      1.555595     -0.806109
  C      -2.430394      0.794623     -1.818736
  C       0.213573     -0.919841      1.198536
  C       1.321938     -0.290025      1.758547
  H       3.295745      1.316493      2.602698
  H       3.794169      1.891780      1.004010
  H       4.329964      0.314962      1.583304
  H       2.808988      0.847482     -1.069090
  H       0.863493     -0.299386     -2.085229
  H      -4.050692     -0.063352      0.516415
  H      -2.418886      0.552640      0.862603
  H      -1.414085      1.227720     -1.799146
  H      -2.772695      0.784212     -2.857368
  H      -0.500225     -1.448205      1.818924
  H       1.456977     -0.313781      2.834921
