14
Coordinates from ORCA-job file E -270.606008216995
  C       1.336400     -0.497800     -0.702200
  C       1.155100      0.538900      0.396200
  C      -0.053900     -0.191400     -0.190500
  C      -0.966500     -0.759800      0.834700
  O      -1.996300      0.127600      0.411400
  C      -1.165400      0.711200     -0.586800
  H       1.718100     -1.484700     -0.366100
  H       1.529200     -0.087700     -1.715700
  H       1.356300      1.568300      0.028900
  H       1.544300      0.177700      1.372400
  H      -0.679000     -0.566400      1.892000
  H      -1.234300     -1.816700      0.620400
  H      -0.998000      1.793000     -0.388100
  H      -1.545900      0.487800     -1.606500
14
Coordinates from ORCA-job file E -270.618722959164
  C       1.345593     -0.491593     -0.697112
  C       1.190326      0.540651      0.393080
  C      -0.028428     -0.176012     -0.178009
  C      -0.976818     -0.778420      0.841134
  O      -2.010641      0.134990      0.420810
  C      -1.178558      0.716503     -0.603485
  H       1.732817     -1.465460     -0.399223
  H       1.550256     -0.118737     -1.700205
  H       1.386616      1.560636      0.063360
  H       1.568856      0.216466      1.362210
  H      -0.697187     -0.617657      1.890404
  H      -1.273000     -1.820451      0.647318
  H      -1.022283      1.790097     -0.436290
  H      -1.587448      0.508987     -1.603892
14
Coordinates from ORCA-job file E -270.623969245209
  C       1.338948     -0.489262     -0.693826
  C       1.215308      0.544902      0.394048
  C      -0.014111     -0.150583     -0.153620
  C      -0.981562     -0.783119      0.839344
  O      -2.011551      0.148055      0.434324
  C      -1.183419      0.714142     -0.607626
  H       1.731867     -1.466617     -0.424179
  H       1.552075     -0.143459     -1.702439
  H       1.407344      1.571169      0.090430
  H       1.587488      0.245689      1.370930
  H      -0.707648     -0.660351      1.893314
  H      -1.292117     -1.817242      0.635243
  H      -1.038686      1.792546     -0.477102
  H      -1.603835      0.494131     -1.598742
14
Coordinates from ORCA-job file E -270.627110478949
  C       1.325704     -0.489408     -0.692190
  C       1.239439      0.550985      0.397011
  C      -0.004102     -0.120893     -0.124317
  C      -0.983991     -0.781427      0.837815
  O      -2.010063      0.161859      0.448356
  C      -1.185343      0.712229     -0.605796
  H       1.717691     -1.471910     -0.438821
  H       1.539159     -0.159779     -1.706555
  H       1.429448      1.582115      0.107794
  H       1.608625      0.265163      1.379396
  H      -0.724053     -0.697261      1.899425
  H      -1.292805     -1.809529      0.601898
  H      -1.060719      1.797234     -0.511384
  H      -1.598891      0.460621     -1.592532
14
Coordinates from ORCA-job file E -270.629119607812
  C       1.308902     -0.489977     -0.690464
  C       1.265067      0.557618      0.400271
  C       0.004389     -0.089228     -0.092842
  C      -0.985855     -0.776922      0.837389
  O      -2.011954      0.170222      0.457284
  C      -1.186597      0.711475     -0.601189
  H       1.694715     -1.477043     -0.445196
  H       1.516728     -0.169294     -1.708927
  H       1.457696      1.589832      0.116378
  H       1.636289      0.276836      1.383452
  H      -0.749495     -0.727966      1.906809
  H      -1.279529     -1.799461      0.561486
  H      -1.091033      1.801821     -0.538264
  H      -1.579222      0.422084     -1.586087
14
Coordinates from ORCA-job file E -270.630262873651
  C       1.290340     -0.490731     -0.688713
  C       1.290708      0.563196      0.402475
  C       0.011603     -0.057859     -0.061495
  C      -0.987931     -0.771730      0.838585
  O      -2.021789      0.163946      0.452159
  C      -1.188174      0.712258     -0.595811
  H       1.666777     -1.482337     -0.447103
  H       1.488847     -0.175038     -1.710612
  H       1.491041      1.593689      0.117339
  H       1.669360      0.281757      1.382729
  H      -0.783326     -0.744511      1.915439
  H      -1.252158     -1.792707      0.529535
  H      -1.127810      1.806096     -0.549990
  H      -1.547389      0.393971     -1.584437
14
Coordinates from ORCA-job file E -270.630806404575
  C       1.273830     -0.492371     -0.688248
  C       1.310534      0.564865      0.401542
  C       0.015231     -0.034506     -0.037856
  C      -0.989717     -0.768403      0.841653
  O      -2.040765      0.132852      0.422570
  C      -1.189857      0.714869     -0.592269
  H       1.640463     -1.488127     -0.448737
  H       1.462328     -0.179950     -1.713019
  H       1.520458      1.592318      0.112428
  H       1.698697      0.280481      1.377195
  H      -0.819061     -0.732097      1.924411
  H      -1.211562     -1.797782      0.528292
  H      -1.162433      1.809629     -0.532824
  H      -1.508047      0.398222     -1.595036
14
Coordinates from ORCA-job file E -270.631129756771
  C       1.260623     -0.494254     -0.688568
  C       1.323841      0.563325      0.398269
  C       0.014757     -0.019557     -0.022253
  C      -0.990804     -0.767859      0.845318
  O      -2.058274      0.091433      0.382019
  C      -1.191216      0.718133     -0.591598
  H       1.619169     -1.493327     -0.450626
  H       1.440639     -0.183996     -1.715529
  H       1.542135      1.587854      0.105074
  H       1.720357      0.275713      1.369584
  H      -0.851923     -0.703237      1.931470
  H      -1.167973     -1.810876      0.549955
  H      -1.191636      1.811165     -0.499956
  H      -1.469595      0.425482     -1.613059
14
Coordinates from ORCA-job file E -270.631329176022
  C       1.251379     -0.496614     -0.689880
  C       1.330798      0.560194      0.394228
  C       0.012766     -0.011891     -0.013944
  C      -0.990846     -0.768489      0.848170
  O      -2.072724      0.042760      0.333626
  C      -1.191650      0.720787     -0.592199
  H       1.603269     -1.498381     -0.453141
  H       1.424330     -0.187786     -1.718531
  H       1.556224      1.582016      0.096830
  H       1.734389      0.269163      1.361656
  H      -0.879860     -0.661729      1.934516
  H      -1.127668     -1.826120      0.586332
  H      -1.213704      1.809173     -0.455471
  H      -1.436604      0.466918     -1.632092
14
Coordinates from ORCA-job file E -270.631428300510
  C       1.241806     -0.499175     -0.691310
  C       1.338633      0.556878      0.389866
  C       0.010777     -0.003823     -0.005369
  C      -0.990666     -0.769000      0.850541
  O      -2.082274     -0.004799      0.286000
  C      -1.192047      0.723061     -0.592708
  H       1.587509     -1.503402     -0.455995
  H       1.408560     -0.192047     -1.721450
  H       1.570892      1.576068      0.089018
  H       1.748552      0.263090      1.353699
  H      -0.910968     -0.621684      1.935009
  H      -1.087675     -1.838825      0.623549
  H      -1.238942      1.804391     -0.412228
  H      -1.404057      0.509265     -1.648523
14
Coordinates from ORCA-job file E -270.631432233610
  C       1.236406     -0.503313     -0.694733
  C       1.342821      0.553568      0.385848
  C       0.012353     -0.000890     -0.002750
  C      -0.990141     -0.767158      0.851136
  O      -2.089236     -0.058868      0.231362
  C      -1.191669      0.723766     -0.590940
  H       1.576314     -1.509928     -0.460896
  H       1.397849     -0.198407     -1.726435
  H       1.579902      1.571063      0.082650
  H       1.756970      0.258256      1.347520
  H      -0.938332     -0.572869      1.930578
  H      -1.055089     -1.846792      0.666164
  H      -1.258748      1.795198     -0.360393
  H      -1.379301      0.556376     -1.659010
14
Coordinates from ORCA-job file E -270.631444610447
  C       1.233323     -0.503212     -0.694188
  C       1.346044      0.553408      0.385229
  C       0.011557      0.002855      0.001121
  C      -0.990092     -0.767715      0.851862
  O      -2.088236     -0.057883      0.232252
  C      -1.191895      0.724538     -0.591509
  H       1.572709     -1.509912     -0.460213
  H       1.394473     -0.198318     -1.725885
  H       1.584091      1.570467      0.081649
  H       1.760898      0.257858      1.346414
  H      -0.944626     -0.576037      1.931748
  H      -1.048997     -1.847636      0.664914
  H      -1.265691      1.795555     -0.362540
  H      -1.373458      0.556031     -1.660753
14
Coordinates from ORCA-job file E -270.631446713259
  C       1.234239     -0.503051     -0.694095
  C       1.345154      0.553662      0.385573
  C       0.011623      0.001933      0.000141
  C      -0.990051     -0.767717      0.851712
  O      -2.088037     -0.053920      0.236245
  C      -1.191815      0.724439     -0.591495
  H       1.574210     -1.509522     -0.459969
  H       1.396041     -0.198064     -1.725671
  H       1.582463      1.571009      0.082331
  H       1.759339      0.258470      1.347174
  H      -0.941330     -0.579219      1.932029
  H      -1.052436     -1.846897      0.661731
  H      -1.262930      1.796368     -0.365941
  H      -1.376369      0.552509     -1.659664
