14
Coordinates from ORCA-job file
  C   1.23423938726750     -0.50305140695477     -0.69409537211517
  C   1.34515353807932      0.55366184337671      0.38557300868761
  C   0.01162261410972      0.00193336235661      0.00014119512811
  C   -0.99005058187045     -0.76771723406841      0.85171157002959
  O   -2.08803742518008     -0.05391989092011      0.23624543319494
  C   -1.19181489816967      0.72443883130220     -0.59149503909236
  H   1.57420962259782     -1.50952215473865     -0.45996894052727
  H   1.39604112340012     -0.19806395194267     -1.72567146478972
  H   1.58246294948783      1.57100914864096      0.08233071910479
  H   1.75933944767601      0.25847036598509      1.34717449015745
  H   -0.94133003448750     -0.57921931441392      1.93202887063052
  H   -1.05243595037509     -1.84689698370864      0.66173061942266
  H   -1.26293046973086      1.79636793815920     -0.36594126148252
  H   -1.37636932280468      0.55250944692640     -1.65966382834863
