10
Coordinates from ORCA-job file
  C   -0.00840230167893     -1.26277914705932     -0.64638211241746
  C   1.03896258195324     -0.25705058994123     -0.22565206396312
  C   0.00460171919625      0.72107546585811      0.36715026446942
  C   -1.04255955185463     -0.32245371097325     -0.07099247979910
  H   1.63352867011485      0.08443193549605     -1.09202213330222
  H   1.77267233224546     -0.70909198515625      0.46559216896485
  H   0.08017269348809      0.88876823390540      1.45005272451792
  H   -0.06419291715799      1.69750617500962     -0.13116718502489
  H   -1.78090862177203     -0.02149895574932     -0.83573041883771
  H   -1.63397460453430     -0.81900742138981      0.71925123539232
