10
Coordinates from ORCA-job file E -155.653567997164
  C      -0.008100     -1.252300     -0.639200
  C       1.066900     -0.261200     -0.230600
  C       0.004300      0.662900      0.338300
  C      -1.070700     -0.329100     -0.070600
  H       1.589200      0.171500     -1.110800
  H       1.740300     -0.676800      0.549500
  H       0.083200      0.777500      1.441700
  H      -0.067800      1.624400     -0.215800
  H      -1.744300      0.065700     -0.861400
  H      -1.593100     -0.782700      0.799000
10
Coordinates from ORCA-job file E -155.661018242282
  C      -0.008356     -1.270301     -0.648283
  C       1.050660     -0.260291     -0.228474
  C       0.004555      0.706667      0.360677
  C      -1.054488     -0.327075     -0.071119
  H       1.593247      0.126082     -1.105802
  H       1.740538     -0.699502      0.509386
  H       0.081741      0.842338      1.448479
  H      -0.065431      1.667652     -0.167777
  H      -1.744885      0.020190     -0.855982
  H      -1.597682     -0.805860      0.758996
10
Coordinates from ORCA-job file E -155.662889297941
  C      -0.008399     -1.269380     -0.647892
  C       1.042077     -0.257611     -0.226151
  C       0.004609      0.727078      0.371083
  C      -1.045828     -0.323591     -0.070336
  H       1.609312      0.094664     -1.103653
  H       1.753767     -0.714516      0.481145
  H       0.080798      0.882212      1.453078
  H      -0.064290      1.694722     -0.138350
  H      -1.758644     -0.011184     -0.851288
  H      -1.613503     -0.822494      0.732464
10
Coordinates from ORCA-job file E -155.663293758866
  C      -0.008380     -1.264388     -0.645812
  C       1.039666     -0.256312     -0.225275
  C       0.004589      0.728329      0.371517
  C      -1.043331     -0.321951     -0.070035
  H       1.622547      0.083232     -1.099226
  H       1.764796     -0.716161      0.468485
  H       0.080443      0.893139      1.453548
  H      -0.064127      1.701907     -0.129574
  H      -1.770522     -0.022623     -0.844810
  H      -1.625782     -0.825273      0.721281
10
Coordinates from ORCA-job file E -155.663398396444
  C      -0.008369     -1.261718     -0.644926
  C       1.039042     -0.256170     -0.225201
  C       0.004586      0.724107      0.369101
  C      -1.042652     -0.321651     -0.070265
  H       1.630824      0.081639     -1.094792
  H       1.771482     -0.712661      0.464335
  H       0.080272      0.892514      1.451655
  H      -0.064168      1.700532     -0.128738
  H      -1.778147     -0.024309     -0.839068
  H      -1.632971     -0.822383      0.717999
10
Coordinates from ORCA-job file E -155.663411060773
  C      -0.008379     -1.262144     -0.645531
  C       1.038995     -0.256643     -0.225458
  C       0.004598      0.721700      0.367669
  C      -1.042595     -0.322084     -0.070669
  H       1.632853      0.083406     -1.092902
  H       1.772739     -0.710080      0.464877
  H       0.080225      0.889885      1.450510
  H      -0.064200      1.698362     -0.130239
  H      -1.780144     -0.022563     -0.836793
  H      -1.634191     -0.819940      0.718635
10
Coordinates from ORCA-job file E -155.663413260667
  C      -0.008402     -1.262779     -0.646382
  C       1.038963     -0.257051     -0.225652
  C       0.004602      0.721075      0.367150
  C      -1.042560     -0.322454     -0.070992
  H       1.633529      0.084432     -1.092022
  H       1.772672     -0.709092      0.465592
  H       0.080173      0.888768      1.450053
  H      -0.064193      1.697506     -0.131167
  H      -1.780909     -0.021499     -0.835730
  H      -1.633975     -0.819007      0.719251
