18
Coordinates from ORCA-job file E -290.110513502107
  C      -2.043400     -0.130600     -0.078900
  C      -0.953100      0.415000     -1.004500
  C       0.085900     -0.063800      0.002700
  C      -0.991700     -0.601200      0.929300
  C       1.119800      0.896600      0.546700
  C       2.107300     -0.167300      0.077600
  N       1.060900     -1.053500     -0.450900
  H      -2.695600      0.672100      0.329800
  H      -2.603600     -0.976600     -0.534100
  H      -0.997400      1.522100     -1.095900
  H      -0.924200     -0.120500     -1.978100
  H      -1.061700     -0.053300      1.894100
  H      -0.968800     -1.708100      1.033500
  H       1.100600      1.007500      1.652400
  H       1.202100      1.840500     -0.034200
  H       2.793400      0.205200     -0.717600
  H       2.643800     -0.649200      0.924300
  H       1.125600     -1.034900     -1.496100
18
Coordinates from ORCA-job file E -290.123800742044
  C      -2.106097     -0.133318     -0.080395
  C      -0.990335      0.416443     -1.007953
  C       0.078931     -0.062593     -0.001722
  C      -1.026236     -0.602278      0.930156
  C       1.153591      0.892413      0.545049
  C       2.179084     -0.166565      0.078002
  N       1.096231     -1.039233     -0.456972
  H      -2.771762      0.641915      0.312641
  H      -2.677355     -0.955297     -0.523490
  H      -1.022586      1.506254     -1.123050
  H      -0.944642     -0.092944     -1.978389
  H      -1.082839     -0.082287      1.893788
  H      -0.983216     -1.689188      1.051518
  H       1.123455      1.026897      1.631256
  H       1.225722      1.837639     -0.003352
  H       2.876729      0.188252     -0.690689
  H       2.725781     -0.648390      0.896980
  H       1.145443     -1.037720     -1.473276
18
Coordinates from ORCA-job file E -290.125939476565
  C      -2.121664     -0.121588     -0.083089
  C      -0.991941      0.411528     -1.004704
  C       0.075196     -0.074208      0.008045
  C      -1.048981     -0.609620      0.927791
  C       1.160454      0.880525      0.554268
  C       2.200962     -0.150742      0.064225
  N       1.114956     -1.037892     -0.441577
  H      -2.794874      0.650526      0.300521
  H      -2.721567     -0.922034     -0.524466
  H      -0.996986      1.496085     -1.156338
  H      -0.929246     -0.082974     -1.981111
  H      -1.091954     -0.121031      1.907153
  H      -0.998029     -1.693598      1.063237
  H       1.127701      1.042522      1.635700
  H       1.204040      1.844063      0.037199
  H       2.889071      0.211300     -0.708909
  H       2.785039     -0.628083      0.857692
  H       1.137725     -1.094780     -1.455538
18
Coordinates from ORCA-job file E -290.126350355875
  C      -2.121214     -0.101218     -0.087025
  C      -0.976571      0.401992     -1.006409
  C       0.075800     -0.089464      0.020940
  C      -1.064015     -0.619388      0.924745
  C       1.153200      0.873427      0.570749
  C       2.206624     -0.125901      0.045468
  N       1.128127     -1.045884     -0.412093
  H      -2.776316      0.687232      0.296037
  H      -2.746205     -0.881902     -0.529564
  H      -0.960446      1.483511     -1.180479
  H      -0.913704     -0.104952     -1.977021
  H      -1.104146     -0.150955      1.914396
  H      -1.027393     -1.705961      1.047772
  H       1.132482      1.021299      1.655175
  H       1.169491      1.850169      0.077229
  H       2.853260      0.258601     -0.753169
  H       2.838654     -0.584184      0.813097
  H       1.132271     -1.166421     -1.419746
18
Coordinates from ORCA-job file E -290.125624532960
  C      -2.121851     -0.120372     -0.086796
  C      -0.997515      0.428246     -1.007190
  C       0.073555     -0.054448      0.004634
  C      -1.048578     -0.611445      0.918540
  C       1.165801      0.889187      0.559906
  C       2.206529     -0.143709      0.066486
  N       1.116224     -1.017202     -0.424313
  H      -2.796812      0.645320      0.303142
  H      -2.742476     -0.907106     -0.532884
  H      -0.992873      1.511057     -1.193996
  H      -0.927763     -0.064806     -1.984691
  H      -1.085779     -0.167005      1.920656
  H      -0.986782     -1.697698      1.032470
  H       1.144600      1.057812      1.641582
  H       1.192245      1.873215      0.074010
  H       2.870878      0.234349     -0.715167
  H       2.823352     -0.622621      0.840881
  H       1.107145     -1.232774     -1.417173
18
Coordinates from ORCA-job file E -290.126365934308
  C      -2.121370     -0.094166     -0.089299
  C      -0.978190      0.410742     -1.010268
  C       0.074863     -0.077390      0.019128
  C      -1.065393     -0.623863      0.915576
  C       1.154624      0.878271      0.578845
  C       2.211107     -0.115234      0.044073
  N       1.131586     -1.031050     -0.393479
  H      -2.767152      0.697334      0.301264
  H      -2.770066     -0.857550     -0.533049
  H      -0.952489      1.488887     -1.215326
  H      -0.911124     -0.102857     -1.977619
  H      -1.102195     -0.193468      1.923449
  H      -1.024026     -1.712933      1.014393
  H       1.141682      1.024247      1.664037
  H       1.156682      1.870269      0.111438
  H       2.828292      0.287525     -0.766267
  H       2.876734     -0.568762      0.790320
  H       1.116335     -1.280002     -1.377114
18
Coordinates from ORCA-job file E -290.126869756648
  C      -2.119249     -0.072670     -0.094424
  C      -0.959591      0.397269     -1.012493
  C       0.076106     -0.095178      0.033904
  C      -1.081015     -0.632646      0.912906
  C       1.146496      0.869225      0.597156
  C       2.212759     -0.089363      0.021385
  N       1.144144     -1.041875     -0.361314
  H      -2.740744      0.738925      0.295541
  H      -2.790560     -0.815496     -0.538122
  H      -0.915097      1.470981     -1.234287
  H      -0.893481     -0.133562     -1.970703
  H      -1.119729     -0.216053      1.926359
  H      -1.056793     -1.723660      0.997952
  H       1.146075      0.989533      1.685705
  H       1.124511      1.870963      0.153539
  H       2.778604      0.333884     -0.817272
  H       2.926725     -0.516441      0.736436
  H       1.120741     -1.333835     -1.332169
18
Coordinates from ORCA-job file E -290.127299308316
  C      -2.115974     -0.056681     -0.103417
  C      -0.940308      0.387581     -1.013269
  C       0.077330     -0.108937      0.050482
  C      -1.096464     -0.636734      0.911860
  C       1.141831      0.860574      0.616245
  C       2.211271     -0.065954     -0.003851
  N       1.153494     -1.051646     -0.327390
  H      -2.721346      0.769156      0.282546
  H      -2.801033     -0.784590     -0.550165
  H      -0.880454      1.457781     -1.246664
  H      -0.871421     -0.155587     -1.964377
  H      -1.141162     -0.228418      1.928411
  H      -1.086095     -1.728741      0.988812
  H       1.158750      0.949944      1.707767
  H       1.097039      1.873320      0.201938
  H       2.720094      0.373964     -0.871408
  H       2.973861     -0.465293      0.674991
  H       1.120488     -1.389738     -1.282412
18
Coordinates from ORCA-job file E -290.127697687479
  C      -2.111602     -0.045143     -0.115361
  C      -0.920077      0.380402     -1.013073
  C       0.078657     -0.120017      0.068341
  C      -1.111312     -0.636796      0.912456
  C       1.139740      0.852103      0.635764
  C       2.206377     -0.044809     -0.030881
  N       1.160510     -1.060886     -0.292734
  H      -2.708256      0.790516      0.263222
  H      -2.802140     -0.764203     -0.567459
  H      -0.848301      1.448255     -1.252476
  H      -0.845283     -0.171132     -1.958838
  H      -1.165181     -0.229818      1.929061
  H      -1.112676     -1.729104      0.987450
  H       1.178057      0.904211      1.729211
  H       1.074247      1.876283      0.255288
  H       2.653550      0.407742     -0.926664
  H       3.016036     -0.415373      0.607611
  H       1.117555     -1.442232     -1.230819
18
Coordinates from ORCA-job file E -290.128093999803
  C      -2.105647     -0.033844     -0.127438
  C      -0.898592      0.372292     -1.013244
  C       0.080313     -0.131303      0.086156
  C      -1.125000     -0.635875      0.913557
  C       1.137448      0.843923      0.654930
  C       2.198096     -0.024067     -0.057618
  N       1.167925     -1.069827     -0.258200
  H      -2.694331      0.811398      0.242679
  H      -2.799287     -0.745980     -0.584799
  H      -0.815780      1.437958     -1.256814
  H      -0.818172     -0.188036     -1.953238
  H      -1.188569     -0.226596      1.928493
  H      -1.139086     -1.728219      0.988405
  H       1.199357      0.852812      1.748420
  H       1.052744      1.878764      0.310563
  H       2.580214      0.437482     -0.979605
  H       3.051579     -0.363840      0.538545
  H       1.116687     -1.487044     -1.180693
18
Coordinates from ORCA-job file E -290.128443439432
  C      -2.097773     -0.021017     -0.138378
  C      -0.875586      0.361717     -1.014063
  C       0.082268     -0.143679      0.103859
  C      -1.137444     -0.635619      0.914776
  C       1.133682      0.836501      0.673223
  C       2.186509     -0.002802     -0.082847
  N       1.176836     -1.078212     -0.224096
  H      -2.675045      0.835701      0.223740
  H      -2.795844     -0.725251     -0.599967
  H      -0.780805      1.424594     -1.262829
  H      -0.791635     -0.210549     -1.946331
  H      -1.210187     -0.223417      1.927595
  H      -1.166524     -1.727894      0.987642
  H       1.220812      0.797401      1.764120
  H       1.030523      1.880545      0.365535
  H       2.500889      0.463937     -1.028403
  H       3.079843     -0.309276      0.470402
  H       1.119383     -1.522681     -1.133877
18
Coordinates from ORCA-job file E -290.128635015175
  C      -2.088041     -0.009466     -0.149287
  C      -0.851200      0.349859     -1.015086
  C       0.084300     -0.154923      0.122084
  C      -1.148305     -0.633922      0.917463
  C       1.129491      0.830606      0.690599
  C       2.171648      0.017530     -0.105891
  N       1.185328     -1.085656     -0.191532
  H      -2.652708      0.859214      0.203996
  H      -2.788918     -0.707744     -0.614512
  H      -0.745336      1.409874     -1.268863
  H      -0.764916     -0.237230     -1.937483
  H      -1.230886     -0.215577      1.926609
  H      -1.193598     -1.725758      0.987546
  H       1.244448      0.735490      1.775056
  H       1.009972      1.882847      0.421087
  H       2.416446      0.484242     -1.072420
  H       3.100215     -0.254070      0.405013
  H       1.121961     -1.545313     -1.094280
18
Coordinates from ORCA-job file E -290.128664671755
  C      -2.088284     -0.010455     -0.148761
  C      -0.852631      0.350184     -1.015998
  C       0.084263     -0.152840      0.120433
  C      -1.146909     -0.632760      0.917704
  C       1.129592      0.831325      0.689842
  C       2.172344      0.016473     -0.103676
  N       1.184348     -1.084642     -0.193906
  H      -2.652866      0.858170      0.204389
  H      -2.788850     -0.709910     -0.612958
  H      -0.747938      1.410073     -1.271207
  H      -0.766970     -0.238498     -1.937385
  H      -1.229109     -0.213798      1.926626
  H      -1.191745     -1.724549      0.987084
  H       1.243895      0.733138      1.773938
  H       1.011288      1.884239      0.421686
  H       2.418890      0.482759     -1.069641
  H       3.099718     -0.256024      0.409490
  H       1.120863     -1.542885     -1.097560
18
Coordinates from ORCA-job file E -290.128700857003
  C      -2.087376     -0.010495     -0.151677
  C      -0.851450      0.351137     -1.018760
  C       0.084793     -0.147266      0.119982
  C      -1.146336     -0.628939      0.916785
  C       1.130756      0.831648      0.693545
  C       2.170824      0.019505     -0.106153
  N       1.183797     -1.081330     -0.188541
  H      -2.650378      0.859310      0.199490
  H      -2.789701     -0.709668     -0.615132
  H      -0.745774      1.409445     -1.282566
  H      -0.764496     -0.243477     -1.936027
  H      -1.229824     -0.212751      1.926891
  H      -1.190980     -1.720743      0.982543
  H       1.251214      0.714378      1.774770
  H       1.009860      1.889915      0.445836
  H       2.400091      0.486681     -1.074863
  H       3.107868     -0.246139      0.395291
  H       1.117014     -1.561211     -1.081313
18
Coordinates from ORCA-job file E -290.128708439079
  C      -2.089835     -0.013761     -0.145732
  C      -0.859613      0.352231     -1.019525
  C       0.083677     -0.145716      0.113092
  C      -1.141027     -0.630071      0.917327
  C       1.129601      0.836036      0.684435
  C       2.176211      0.011192     -0.094717
  N       1.180648     -1.079831     -0.202850
  H      -2.654644      0.853366      0.208883
  H      -2.790833     -0.716363     -0.606073
  H      -0.757920      1.411785     -1.279934
  H      -0.776787     -0.239985     -1.938588
  H      -1.219252     -0.212956      1.927394
  H      -1.183361     -1.721974      0.983988
  H       1.239696      0.732513      1.768192
  H       1.014239      1.890935      0.420107
  H       2.436497      0.474549     -1.056966
  H       3.096587     -0.267279      0.430423
  H       1.116016     -1.534672     -1.109356
18
Coordinates from ORCA-job file E -290.128711079435
  C      -2.090322     -0.013576     -0.145063
  C      -0.860568      0.352516     -1.019139
  C       0.083892     -0.146304      0.112323
  C      -1.140908     -0.630923      0.916750
  C       1.129516      0.835611      0.684010
  C       2.176802      0.010781     -0.094392
  N       1.180991     -1.080314     -0.203592
  H      -2.655229      0.853279      0.210423
  H      -2.791953     -0.715406     -0.605438
  H      -0.758511      1.412120     -1.278947
  H      -0.778309     -0.238398     -1.939238
  H      -1.218405     -0.214754      1.927335
  H      -1.182793     -1.722855      0.983309
  H       1.237929      0.737902      1.768510
  H       1.014471      1.889664      0.416273
  H       2.440522      0.474728     -1.055615
  H       3.095566     -0.269204      0.432402
  H       1.117209     -1.534868     -1.109811
18
Coordinates from ORCA-job file E -290.128711959854
  C      -2.089948     -0.013454     -0.145897
  C      -0.859430      0.352290     -1.019106
  C       0.083895     -0.146345      0.113400
  C      -1.141511     -0.630523      0.916990
  C       1.129682      0.835383      0.684936
  C       2.176123      0.011629     -0.095680
  N       1.181108     -1.080440     -0.201956
  H      -2.654793      0.853666      0.208938
  H      -2.791408     -0.715269     -0.606617
  H      -0.757035      1.411781     -1.279309
  H      -0.776576     -0.239151     -1.938777
  H      -1.219726     -0.214068      1.927402
  H      -1.183752     -1.722428      0.983678
  H       1.239652      0.734660      1.769026
  H       1.013924      1.889995      0.419809
  H       2.436219      0.475567     -1.057893
  H       3.096803     -0.266778      0.428611
  H       1.116674     -1.536515     -1.107454
