18
Coordinates from ORCA-job file
  C   -2.08994842334694     -0.01345354552954     -0.14589743973173
  C   -0.85943002347472      0.35228972304259     -1.01910607568139
  C   0.08389539568397     -0.14634453129179      0.11340014229822
  C   -1.14151083606009     -0.63052286331444      0.91698994124213
  C   1.12968157707050      0.83538250977827      0.68493616716914
  C   2.17612283926480      0.01162869397202     -0.09568048963979
  N   1.18110764126740     -1.08044025921008     -0.20195595247250
  H   -2.65479341942647      0.85366615830759      0.20893761496745
  H   -2.79140806273991     -0.71526940898137     -0.60661737324980
  H   -0.75703509337437      1.41178105366501     -1.27930907136715
  H   -0.77657587286942     -0.23915118587206     -1.93877659882619
  H   -1.21972568578790     -0.21406824546052      1.92740206527695
  H   -1.18375167134384     -1.72242775616900      0.98367805057501
  H   1.23965200245432      0.73465965083118      1.76902571963190
  H   1.01392399999020      1.88999529650347      0.41980923076860
  H   2.43621892707952      0.47556704853456     -1.05789255828425
  H   3.09680260721122     -0.26677769243057      0.42861091374319
  H   1.11667409840172     -1.53651464637531     -1.10745428641979
