20
Coordinates from ORCA-job file
  C   1.31364170776531     -0.93397268627098      0.13051914782876
  N   1.57792452202385      0.50142670779717      0.07834281802062
  C   0.61967843935632      1.32611683181782      0.81223276921246
  C   -0.81099886365824      0.93819337058515      0.40963693527355
  C   -1.05180395511990     -0.53440832524626      0.78058246909448
  C   -0.14745886680815     -1.18291435841646     -0.27738888648366
  C   -0.50170113618766     -0.36532382698133     -1.54431700258162
  N   -0.94748800135282      0.96576308329060     -1.05772084316187
  H   1.99508306473324     -1.43042221923054     -0.57137037329370
  H   1.48076150787838     -1.37599930166715      1.13125667980797
  H   2.53044883795044      0.71666581869316      0.34494402178814
  H   0.70766857141750      1.22083869018448      1.91085626008426
  H   0.80081629038904      2.37379403535616      0.55019934531354
  H   -1.51949986522209      1.63556180632587      0.86971383381086
  H   -0.76183753962064     -0.78816017013878      1.80677297984978
  H   -2.10520184351204     -0.80513417491232      0.63512441675320
  H   -0.32480122162974     -2.25581393649174     -0.40774110596571
  H   -1.30237949458241     -0.85654690976758     -2.11184639105424
  H   0.37042047392803     -0.25494214079266     -2.19681848517406
  H   -1.92337262774841      1.10507770586541     -1.29317858912277
