20
Coordinates from ORCA-job file E -345.544123673514
  C       1.327300     -0.912400      0.095700
  N       1.634400      0.534300      0.106800
  C       0.613200      1.335000      0.813900
  C      -0.813500      0.929100      0.377700
  C      -1.023500     -0.522500      0.759900
  C      -0.152800     -1.176100     -0.284000
  C      -0.537200     -0.385300     -1.538600
  N      -0.897200      0.970200     -1.088900
  H       1.985500     -1.412700     -0.646500
  H       1.548200     -1.358500      1.091700
  H       2.554000      0.673300      0.586800
  H       0.725000      1.214700      1.915200
  H       0.771200      2.408400      0.574900
  H      -1.572700      1.590300      0.852000
  H      -0.712800     -0.755000      1.803300
  H      -2.089600     -0.812300      0.622500
  H      -0.360000     -2.263700     -0.384000
  H      -1.405200     -0.874900     -2.037000
  H       0.299700     -0.336000     -2.268200
  H      -1.894100      1.153900     -1.353400
20
Coordinates from ORCA-job file E -345.550655774201
  C       1.322217     -0.922453      0.105536
  N       1.603843      0.517548      0.103894
  C       0.612794      1.336994      0.813978
  C      -0.807868      0.938371      0.396957
  C      -1.037375     -0.530728      0.777664
  C      -0.139694     -1.178614     -0.281243
  C      -0.526058     -0.383096     -1.548404
  N      -0.921048      0.964534     -1.071938
  H       1.987477     -1.397199     -0.626591
  H       1.516957     -1.394659      1.086470
  H       2.513307      0.675430      0.515782
  H       0.694436      1.240830      1.913006
  H       0.786340      2.385584      0.550238
  H      -1.532019      1.622873      0.850347
  H      -0.734340     -0.769991      1.803212
  H      -2.089241     -0.813005      0.645146
  H      -0.313831     -2.253226     -0.397706
  H      -1.365439     -0.873464     -2.058894
  H       0.310898     -0.313468     -2.251363
  H      -1.881455      1.147540     -1.326290
20
Coordinates from ORCA-job file E -345.551338210957
  C       1.317228     -0.929082      0.120799
  N       1.588847      0.507987      0.083405
  C       0.617783      1.329754      0.809887
  C      -0.809765      0.937679      0.405308
  C      -1.046638     -0.534106      0.780669
  C      -0.143191     -1.180175     -0.279319
  C      -0.511583     -0.371447     -1.547122
  N      -0.942749      0.963285     -1.061373
  H       1.993110     -1.416319     -0.592544
  H       1.492715     -1.383598      1.114115
  H       2.523350      0.694663      0.427078
  H       0.701913      1.229993      1.908819
  H       0.795670      2.376745      0.544079
  H      -1.520647      1.633910      0.862185
  H      -0.749778     -0.782232      1.805859
  H      -2.099016     -0.810391      0.642027
  H      -0.314181     -2.254211     -0.405426
  H      -1.327107     -0.865304     -2.090269
  H       0.345743     -0.275084     -2.220814
  H      -1.911805      1.127732     -1.307563
20
Coordinates from ORCA-job file E -345.551525507548
  C       1.313578     -0.933093      0.130491
  N       1.577823      0.502613      0.072437
  C       0.620212      1.325445      0.810309
  C      -0.811232      0.937642      0.410159
  C      -1.051884     -0.535302      0.781419
  C      -0.147196     -1.182792     -0.277767
  C      -0.502402     -0.365167     -1.544878
  N      -0.950070      0.964309     -1.056566
  H       1.996054     -1.430970     -0.569390
  H       1.479069     -1.372347      1.132761
  H       2.527792      0.713163      0.352563
  H       0.709623      1.219028      1.908694
  H       0.800576      2.373262      0.548152
  H      -1.517635      1.637081      0.870481
  H      -0.760664     -0.789598      1.807113
  H      -2.105295     -0.806395      0.636965
  H      -0.321952     -2.256068     -0.408906
  H      -1.302211     -0.857936     -2.112212
  H       0.369780     -0.252947     -2.197015
  H      -1.924066      1.109874     -1.295010
20
Coordinates from ORCA-job file E -345.551540714426
  C       1.313742     -0.933682      0.130295
  N       1.578026      0.501871      0.077154
  C       0.619895      1.326091      0.811845
  C      -0.810969      0.938106      0.409814
  C      -1.051732     -0.534642      0.780788
  C      -0.147502     -1.183136     -0.277558
  C      -0.502317     -0.365647     -1.544550
  N      -0.948062      0.965285     -1.057492
  H       1.995698     -1.430637     -0.570716
  H       1.480054     -1.374834      1.131501
  H       2.530039      0.716170      0.346805
  H       0.708016      1.220262      1.910369
  H       0.800871      2.373850      0.550025
  H      -1.518814      1.636082      0.870010
  H      -0.761516     -0.788763      1.806802
  H      -2.105168     -0.805227      0.635502
  H      -0.324158     -2.256140     -0.408031
  H      -1.302630     -0.857133     -2.112337
  H       0.370025     -0.254610     -2.196588
  H      -1.923599      1.106535     -1.293838
20
Coordinates from ORCA-job file E -345.551541732128
  C       1.313642     -0.933973      0.130519
  N       1.577925      0.501427      0.078343
  C       0.619678      1.326117      0.812233
  C      -0.810999      0.938193      0.409637
  C      -1.051804     -0.534408      0.780582
  C      -0.147459     -1.182914     -0.277389
  C      -0.501701     -0.365324     -1.544317
  N      -0.947488      0.965763     -1.057721
  H       1.995083     -1.430422     -0.571370
  H       1.480762     -1.375999      1.131257
  H       2.530449      0.716666      0.344944
  H       0.707669      1.220839      1.910856
  H       0.800816      2.373794      0.550199
  H      -1.519500      1.635562      0.869714
  H      -0.761838     -0.788160      1.806773
  H      -2.105202     -0.805134      0.635124
  H      -0.324801     -2.255814     -0.407741
  H      -1.302379     -0.856547     -2.111846
  H       0.370420     -0.254942     -2.196818
  H      -1.923373      1.105078     -1.293179
