60
Coordinates from ORCA-job file
  C   -1.54440787059081      1.15177398061061      3.86255788181534
  O   -0.90118279641353     -0.04773444178885      3.49455815063494
  C   -0.92668305597461     -0.43948540852057      2.19836212122541
  C   -1.50269402561229      0.32115072312762      1.17514574483953
  C   -1.46164023276132     -0.16301594640813     -0.14228013954588
  O   -1.91617072656284      0.55863226362590     -1.19158335901513
  C   -2.52746494365658      1.81174064847939     -0.98910319941348
  C   -0.91436207631281     -1.42565488684851     -0.42840831498410
  S   -0.50181697421698     -2.04676543527847     -2.09774647888740
  C   -1.85140177419723     -1.38856430232095     -3.08762293059578
  C   -3.16148812293067     -1.72897789323159     -2.74275993039618
  C   -4.22022046664513     -1.26954290031777     -3.52320258572039
  C   -3.95071708271583     -0.48274953431296     -4.64859281204303
  Cl  -5.27730189750437      0.10066447465370     -5.62554392250145
  C   -2.63843562413051     -0.16366512999211     -5.00545676983769
  C   -1.58062080588350     -0.62698133897293     -4.22061328836489
  C   0.95636531105787     -1.34840948841942     -2.70528401445937
  C   1.40325224827880     -0.06272420131772     -1.98195405335770
  N   2.16033297246336     -0.92531828166032     -1.03480632488626
  S   3.58289115381928     -0.43558615179010     -0.28109477670467
  O   4.05277834434291     -1.61332574955558      0.46378329238397
  O   4.48865705602098      0.26101187216966     -1.20631316551534
  C   2.93044954556184      0.77578817436887      0.86195265928394
  C   2.84161540109163      2.11248463610926      0.46491550434571
  C   2.30318692866203      3.04539735158883      1.34909605182150
  C   1.86853212089196      2.66462515160435      2.63072193977861
  C   1.32188101236811      3.69659220307903      3.58516469323611
  C   1.98201678566108      1.31724327642410      3.00403175494711
  C   2.50620722806398      0.36874974078560      2.12508342925368
  C   2.16531673217338     -2.03509224158461     -2.03598982083756
  C   -0.29823384510789     -2.14978780549124      0.61824753353352
  O   0.30220669271633     -3.30541466451131      0.26457299457982
  C   1.33418171199483     -3.83213387251781      1.08515808594274
  C   -0.31332746933425     -1.66831189670262      1.92535765509905
  H   -2.62424376841938      1.12104889561726      3.63128497104118
  H   -1.09543128793207      2.02706172665170      3.36237559060163
  H   -1.41442211963731      1.25641392949164      4.94822460291598
  H   -1.94345087984012      1.29067607091796      1.38459580200699
  H   -1.82872525035009      2.53852801265481     -0.53766451472471
  H   -2.82679942516988      2.16958982561478     -1.98311310255500
  H   -3.42479303002823      1.72879709446996     -0.35088227473715
  H   -3.35950548947408     -2.33409196629774     -1.85468476957789
  H   -5.25179189779898     -1.51822137315865     -3.26876551345296
  H   -2.44963737415274      0.44186561187428     -5.89366016108252
  H   -0.53784188568407     -0.41607530323008     -4.47027003109675
  H   0.64772065730457      0.58048371798769     -1.50646206256315
  H   2.07510441237570      0.55606401792055     -2.60641180024020
  H   3.21028519103217      2.40898634582868     -0.51869532607184
  H   2.23324949585457      4.09438243683132      1.04635403835301
  H   0.97828686109624      3.23974677572245      4.52464509548559
  H   2.09058449447192      4.44597885539763      3.83917440249855
  H   0.47551675546981      4.24734340463865      3.14111731108451
  H   1.64957412302438      0.99918657418260      3.99446105896179
  H   2.60082357175139     -0.67743248332032      2.41582758606428
  H   3.06594661724262     -2.00515289205468     -2.67841812101746
  H   2.05290147399140     -3.04092059905476     -1.60784287375793
  H   2.15403840375350     -3.10326566966327      1.19644042823088
  H   1.71364052930702     -4.72006034559138      0.56220021417863
  H   0.95431252378976     -4.14328670592589      2.07314989812327
  H   0.14295584340467     -2.21425888258854      2.74816594567661
