60
Coordinates from ORCA-job file E -2653.195825671013
  C      -5.501000      0.738100      3.313000
  O      -4.577400     -0.338000      3.183000
  C      -3.686100     -0.495500      2.110500
  C      -3.623800      0.416000      1.042200
  C      -2.713500      0.220900     -0.013200
  O      -2.616400      1.125000     -1.083100
  C      -3.409800      2.297700     -1.230200
  C      -1.869100     -0.903000      0.004100
  S      -0.723100     -1.174500     -1.305700
  C      -1.446200     -1.845000     -2.756000
  C      -1.268700     -3.201700     -3.052900
  C      -1.840200     -3.747700     -4.206500
  C      -2.588300     -2.937900     -5.068600
  Cl     -3.304600     -3.622600     -6.515900
  C      -2.761600     -1.580300     -4.776000
  C      -2.190500     -1.033800     -3.622500
  C       0.394900      0.188800     -1.603200
  C       1.291600      0.443700     -0.403000
  N       2.497700     -0.015600     -1.101300
  S       3.600800      1.311000     -1.384500
  O       4.679300      0.869800     -2.333900
  O       2.881800      2.487200     -1.989300
  C       4.336300      1.782100      0.144500
  C       3.880800      2.913300      0.835800
  C       4.458000      3.270500      2.058100
  C       5.485300      2.490100      2.610300
  C       6.131300      2.894000      3.902300
  C       5.947300      1.364600      1.910900
  C       5.369300      1.008200      0.688800
  C       1.671000     -0.276200     -2.285300
  C      -1.919500     -1.815500      1.070500
  O      -1.052300     -2.920800      1.056500
  C      -0.997500     -3.919000      2.070100
  C      -2.833400     -1.602000      2.118100
  H      -6.210300      0.738100      2.458500
  H      -4.956700      1.705100      3.359200
  H      -6.076900      0.609900      4.252300
  H      -4.277600      1.275000      1.034600
  H      -3.236200      2.985900     -0.376100
  H      -3.119500      2.815000     -2.167400
  H      -4.484600      2.026000     -1.292900
  H      -0.691600     -3.834700     -2.390400
  H      -1.701200     -4.797900     -4.429000
  H      -3.335200     -0.948300     -5.442000
  H      -2.320700      0.019100     -3.413800
  H       1.077300     -0.206300      0.474000
  H       1.298000      1.520800     -0.124900
  H       3.080100      3.519300      0.431800
  H       4.101800      4.153300      2.574700
  H       6.489100      2.000300      4.456700
  H       6.994500      3.559100      3.691100
  H       5.408600      3.433400      4.551000
  H       6.752200      0.761700      2.312900
  H       5.727200      0.129600      0.167100
  H       1.914000      0.356400     -3.167800
  H       1.682900     -1.359100     -2.539200
  H      -0.723000     -3.460100      3.043300
  H      -0.224400     -4.667100      1.799800
  H      -1.977600     -4.434500      2.151600
  H      -2.892600     -2.291900      2.948800
60
Coordinates from ORCA-job file E -2653.228562073242
  C      -5.424088      0.728908      3.215472
  O      -4.514282     -0.352454      3.153603
  C      -3.646584     -0.500080      2.105561
  C      -3.601946      0.401172      1.031748
  C      -2.689196      0.194479     -0.011294
  O      -2.596343      1.046430     -1.073685
  C      -3.418454      2.189919     -1.193037
  C      -1.826484     -0.915958      0.015976
  S      -0.663100     -1.203872     -1.276316
  C      -1.421509     -1.832201     -2.734604
  C      -1.255698     -3.183761     -3.050912
  C      -1.843703     -3.705428     -4.204661
  C      -2.594048     -2.871374     -5.040397
  Cl     -3.329391     -3.525124     -6.484934
  C      -2.756810     -1.516930     -4.729527
  C      -2.168236     -0.996394     -3.576141
  C       0.404400      0.192459     -1.607696
  C       1.296284      0.481061     -0.396459
  N       2.509309      0.030346     -1.127056
  S       3.596825      1.344078     -1.446120
  O       4.671796      0.860391     -2.355475
  O       2.872304      2.522760     -2.007530
  C       4.307880      1.783139      0.107825
  C       3.848747      2.908258      0.798588
  C       4.408551      3.240112      2.033900
  C       5.418639      2.444135      2.597625
  C       6.047911      2.824628      3.912037
  C       5.876857      1.321977      1.888058
  C       5.320104      0.987440      0.652871
  C       1.678274     -0.272290     -2.320052
  C      -1.875943     -1.811587      1.098350
  O      -1.016647     -2.875179      1.094348
  C      -1.000419     -3.819102      2.147465
  C      -2.787061     -1.599974      2.139211
  H      -6.118794      0.706619      2.353844
  H      -4.883887      1.694937      3.238063
  H      -6.007174      0.626371      4.144554
  H      -4.269983      1.256986      1.009828
  H      -3.247528      2.883462     -0.347958
  H      -3.146808      2.699674     -2.130767
  H      -4.486816      1.902640     -1.236864
  H      -0.671344     -3.830829     -2.398528
  H      -1.716628     -4.757834     -4.450980
  H      -3.336840     -0.869564     -5.384957
  H      -2.281951      0.059342     -3.340322
  H       1.112415     -0.155109      0.496587
  H       1.294072      1.554136     -0.120367
  H       3.058839      3.527625      0.377096
  H       4.051065      4.124909      2.559538
  H       6.387705      1.928313      4.460610
  H       6.920377      3.480459      3.734377
  H       5.328358      3.363032      4.553846
  H       6.672032      0.701119      2.299379
  H       5.676143      0.109571      0.115961
  H       1.915201      0.339933     -3.210895
  H       1.717860     -1.355982     -2.564843
  H      -0.744201     -3.331097      3.107155
  H      -0.228781     -4.569541      1.912995
  H      -1.979761     -4.327735      2.233065
  H      -2.841511     -2.281421      2.984345
60
Coordinates from ORCA-job file E -2653.245140818746
  C      -5.364869      0.731263      3.160431
  O      -4.457407     -0.348607      3.140281
  C      -3.607651     -0.493175      2.104726
  C      -3.573683      0.391093      1.016296
  C      -2.656294      0.166107     -0.018384
  O      -2.561198      0.967518     -1.087423
  C      -3.393265      2.097778     -1.213708
  C      -1.778819     -0.937587      0.029586
  S      -0.592411     -1.259963     -1.235980
  C      -1.396552     -1.827578     -2.707956
  C      -1.259025     -3.175012     -3.047487
  C      -1.868432     -3.663226     -4.203957
  C      -2.608742     -2.794646     -5.011583
  Cl     -3.369724     -3.404766     -6.457198
  C      -2.743090     -1.441918     -4.678164
  C      -2.131905     -0.956978     -3.522966
  C       0.405391      0.176451     -1.608090
  C       1.294039      0.510683     -0.396263
  N       2.515473      0.083110     -1.152324
  S       3.579070      1.384241     -1.507325
  O       4.644579      0.859676     -2.378164
  O       2.848831      2.561482     -2.023636
  C       4.266408      1.791082      0.073914
  C       3.805915      2.910978      0.766913
  C       4.349464      3.214438      2.015788
  C       5.341037      2.401142      2.587555
  C       5.952747      2.754208      3.921205
  C       5.793954      1.283326      1.866468
  C       5.258248      0.972260      0.617766
  C       1.678907     -0.275639     -2.342869
  C      -1.828453     -1.814943      1.134248
  O      -0.969249     -2.848737      1.139391
  C      -0.964949     -3.756708      2.219005
  C      -2.741991     -1.590680      2.167695
  H      -6.056563      0.690974      2.299553
  H      -4.835046      1.700959      3.161465
  H      -5.946383      0.642828      4.088128
  H      -4.248352      1.240530      0.974916
  H      -3.224206      2.811077     -0.387835
  H      -3.123495      2.582334     -2.161447
  H      -4.460189      1.810872     -1.244057
  H      -0.678044     -3.841982     -2.407718
  H      -1.767242     -4.714299     -4.476935
  H      -3.318022     -0.773349     -5.320645
  H      -2.211830      0.096908     -3.257452
  H       1.153736     -0.108273      0.514207
  H       1.273902      1.580979     -0.125050
  H       3.031223      3.542778      0.329860
  H       3.993823      4.097578      2.551912
  H       6.275215      1.850983      4.462719
  H       6.836129      3.400612      3.777567
  H       5.234888      3.293423      4.558903
  H       6.575988      0.645583      2.285491
  H       5.609576      0.099407      0.065124
  H       1.902534      0.315129     -3.247232
  H       1.760719     -1.358402     -2.573330
  H      -0.719186     -3.249465      3.168923
  H      -0.188478     -4.502564      2.001749
  H      -1.938732     -4.269388      2.316040
  H      -2.798323     -2.251909      3.028851
60
Coordinates from ORCA-job file E -2653.253207891556
  C      -5.319457      0.753955      3.134983
  O      -4.413607     -0.327936      3.133103
  C      -3.569345     -0.489139      2.097641
  C      -3.532278      0.371302      0.990541
  C      -2.613552      0.118944     -0.038656
  O      -2.516225      0.887593     -1.127116
  C      -3.336170      2.024302     -1.277224
  C      -1.734956     -0.986940      0.036064
  S      -0.521817     -1.361252     -1.195914
  C      -1.377909     -1.844516     -2.682766
  C      -1.306925     -3.190569     -3.045940
  C      -1.944529     -3.628473     -4.207756
  C      -2.643796     -2.707797     -4.992552
  Cl     -3.441033     -3.252507     -6.443899
  C      -2.708383     -1.354929     -4.637075
  C      -2.067678     -0.921587     -3.477849
  C       0.391508      0.120994     -1.602495
  C       1.271499      0.514696     -0.396714
  N       2.507124      0.132203     -1.164354
  S       3.541515      1.435001     -1.540749
  O       4.602817      0.893864     -2.393866
  O       2.794657      2.609421     -2.016805
  C       4.218347      1.817160      0.059232
  C       3.759369      2.931107      0.761068
  C       4.299006      3.212443      2.016874
  C       5.284774      2.388798      2.583128
  C       5.891573      2.719840      3.924903
  C       5.731670      1.276781      1.848996
  C       5.203391      0.984445      0.593250
  C       1.676684     -0.293498     -2.345866
  C      -1.793129     -1.842090      1.163598
  O      -0.933806     -2.872897      1.185428
  C      -0.928851     -3.758699      2.284012
  C      -2.708410     -1.590971      2.188527
  H      -6.015937      0.703260      2.279523
  H      -4.793443      1.724655      3.117161
  H      -5.894405      0.677670      4.066870
  H      -4.203988      1.221444      0.927647
  H      -3.156714      2.758860     -0.473660
  H      -3.059473      2.476189     -2.238122
  H      -4.407053      1.755033     -1.295741
  H      -0.754987     -3.893810     -2.417551
  H      -1.898196     -4.677766     -4.504487
  H      -3.251691     -0.649774     -5.269166
  H      -2.081063      0.128960     -3.189485
  H       1.180521     -0.087405      0.529884
  H       1.216548      1.584443     -0.132922
  H       2.993043      3.571234      0.319627
  H       3.946357      4.090446      2.565896
  H       6.209566      1.810180      4.456468
  H       6.780094      3.362552      3.800408
  H       5.177427      3.257062      4.566921
  H       6.508077      0.629060      2.266607
  H       5.550717      0.119742      0.024203
  H       1.880162      0.282468     -3.263747
  H       1.820362     -1.372081     -2.561425
  H      -0.682803     -3.237066      3.225029
  H      -0.151236     -4.504371      2.074630
  H      -1.899788     -4.271857      2.396074
  H      -2.774175     -2.228179      3.067105
60
Coordinates from ORCA-job file E -2653.257314817649
  C      -5.241543      0.770734      3.183375
  O      -4.343703     -0.318122      3.167895
  C      -3.521677     -0.484813      2.114402
  C      -3.498315      0.371068      1.005762
  C      -2.600594      0.111703     -0.041713
  O      -2.530150      0.884376     -1.127497
  C      -3.338173      2.034305     -1.241276
  C      -1.723530     -0.999758      0.018732
  S      -0.495269     -1.420010     -1.198355
  C      -1.368750     -1.868716     -2.702952
  C      -1.401608     -3.229480     -3.015008
  C      -2.041459     -3.659434     -4.179148
  C      -2.635017     -2.712724     -5.016691
  Cl     -3.437068     -3.242894     -6.471570
  C      -2.586768     -1.345423     -4.716846
  C      -1.942925     -0.921435     -3.556038
  C       0.369395      0.083485     -1.637668
  C       1.220893      0.545716     -0.431955
  N       2.478898      0.182074     -1.174519
  S       3.515986      1.467376     -1.559931
  O       4.574707      0.892948     -2.389007
  O       2.779160      2.648954     -2.023225
  C       4.176972      1.835088      0.057947
  C       3.735764      2.961284      0.750788
  C       4.266045      3.228728      2.013875
  C       5.226908      2.384906      2.592246
  C       5.823777      2.701490      3.941197
  C       5.653484      1.260438      1.864682
  C       5.136595      0.979373      0.601943
  C       1.678307     -0.313741     -2.353474
  C      -1.772533     -1.849988      1.154621
  O      -0.915362     -2.884140      1.162864
  C      -0.894515     -3.764109      2.266704
  C      -2.667389     -1.592713      2.193813
  H      -5.955727      0.725397      2.342416
  H      -4.711634      1.738891      3.152263
  H      -5.797043      0.698212      4.127126
  H      -4.164961      1.226111      0.951821
  H      -3.123597      2.760643     -0.439122
  H      -3.081629      2.487957     -2.206934
  H      -4.413471      1.784095     -1.227992
  H      -0.929554     -3.949774     -2.341584
  H      -2.078602     -4.718965     -4.439041
  H      -3.043982     -0.624436     -5.397534
  H      -1.851653      0.134095     -3.309481
  H       1.150179     -0.019942      0.518189
  H       1.138776      1.620478     -0.196613
  H       2.993705      3.617690      0.291918
  H       3.927888      4.114322      2.560769
  H       6.116727      1.786409      4.477554
  H       6.729747      3.322666      3.832411
  H       5.117538      3.258589      4.574733
  H       6.408216      0.595093      2.295377
  H       5.469102      0.109260      0.032319
  H       1.886939      0.235106     -3.287300
  H       1.875918     -1.389060     -2.538245
  H      -0.630564     -3.240377      3.201504
  H      -0.122939     -4.511971      2.043991
  H      -1.864420     -4.273389      2.401138
  H      -2.725501     -2.223645      3.077845
60
Coordinates from ORCA-job file E -2653.260108611772
  C      -5.194974      0.791977      3.150848
  O      -4.280500     -0.283714      3.167657
  C      -3.469429     -0.486397      2.106618
  C      -3.477014      0.318563      0.961736
  C      -2.593003      0.030099     -0.091111
  O      -2.570083      0.747540     -1.221952
  C      -3.397238      1.879147     -1.378359
  C      -1.695649     -1.057776      0.004836
  S      -0.463888     -1.506774     -1.204320
  C      -1.382574     -1.879650     -2.710307
  C      -1.544622     -3.231579     -3.022631
  C      -2.221551     -3.597536     -4.187938
  C      -2.719890     -2.595649     -5.024253
  Cl     -3.569884     -3.042586     -6.481750
  C      -2.538961     -1.239664     -4.722139
  C      -1.858548     -0.880062     -3.560374
  C       0.356819      0.022802     -1.647497
  C       1.175370      0.540952     -0.442405
  N       2.453745      0.211103     -1.157428
  S       3.484996      1.502513     -1.526001
  O       4.541913      0.939154     -2.370089
  O       2.742220      2.691437     -1.968198
  C       4.156258      1.853217      0.094964
  C       3.730192      2.979439      0.797541
  C       4.270982      3.234199      2.059130
  C       5.231340      2.380566      2.623347
  C       5.840156      2.683487      3.968660
  C       5.642054      1.255687      1.887185
  C       5.114478      0.987118      0.626081
  C       1.691577     -0.330993     -2.337846
  C      -1.717746     -1.863595      1.174272
  O      -0.842665     -2.889042      1.214040
  C      -0.790113     -3.721847      2.353862
  C      -2.598479     -1.578357      2.217034
  H      -5.920800      0.699187      2.323215
  H      -4.679541      1.765479      3.068142
  H      -5.735692      0.753973      4.105887
  H      -4.161093      1.157202      0.879623
  H      -3.174348      2.650443     -0.620811
  H      -3.170469      2.284197     -2.373212
  H      -4.468435      1.615487     -1.325828
  H      -1.144029     -3.993912     -2.349671
  H      -2.359426     -4.647207     -4.451754
  H      -2.922940     -0.478522     -5.403574
  H      -1.654775      0.161056     -3.308759
  H       1.117109     -0.002853      0.521209
  H       1.055816      1.618102     -0.228623
  H       2.992783      3.644735      0.345229
  H       3.943782      4.117498      2.615228
  H       6.131745      1.762684      4.497226
  H       6.750925      3.298308      3.857560
  H       5.144025      3.244029      4.611385
  H       6.393438      0.582208      2.309611
  H       5.436115      0.120084      0.046706
  H       1.896138      0.213530     -3.276636
  H       1.941022     -1.397929     -2.509574
  H      -0.520437     -3.153641      3.261173
  H      -0.010404     -4.467959      2.151348
  H      -1.750826     -4.238299      2.525355
  H      -2.634966     -2.171655      3.127832
60
Coordinates from ORCA-job file E -2653.262607409674
  C      -5.141650      0.798955      3.161735
  O      -4.201877     -0.254323      3.189505
  C      -3.416163     -0.475455      2.112611
  C      -3.476144      0.288064      0.941680
  C      -2.615126     -0.013436     -0.127010
  O      -2.651674      0.655582     -1.287119
  C      -3.510750      1.759660     -1.461391
  C      -1.686978     -1.069698     -0.018536
  S      -0.467566     -1.516339     -1.243249
  C      -1.406994     -1.879312     -2.745038
  C      -1.696965     -3.221509     -3.001456
  C      -2.391838     -3.569189     -4.161635
  C      -2.774668     -2.559139     -5.048612
  Cl     -3.644737     -2.981271     -6.502541
  C      -2.460007     -1.216515     -4.802061
  C      -1.763277     -0.875551     -3.644342
  C       0.348560      0.019749     -1.684801
  C       1.129706      0.578044     -0.473521
  N       2.426626      0.251566     -1.149246
  S       3.476362      1.530743     -1.494124
  O       4.530195      0.962242     -2.341093
  O       2.752783      2.737059     -1.925767
  C       4.145071      1.854891      0.134169
  C       3.742311      2.987302      0.840161
  C       4.282644      3.223006      2.105691
  C       5.222148      2.345537      2.668423
  C       5.831623      2.627356      4.017565
  C       5.609273      1.214113      1.929138
  C       5.081567      0.964543      0.664368
  C       1.705901     -0.318284     -2.338627
  C      -1.658207     -1.838603      1.174749
  O      -0.754094     -2.839984      1.222399
  C      -0.644985     -3.631427      2.387330
  C      -2.515814     -1.542680      2.233299
  H      -5.887594      0.660209      2.358679
  H      -4.651497      1.780147      3.029928
  H      -5.654881      0.783341      4.132472
  H      -4.185171      1.104338      0.848966
  H      -3.283137      2.566140     -0.742688
  H      -3.327028      2.129097     -2.478692
  H      -4.572805      1.472843     -1.363643
  H      -1.383051     -3.989750     -2.290049
  H      -2.630004     -4.610193     -4.385006
  H      -2.753230     -0.452615     -5.524330
  H      -1.444825      0.147630     -3.430500
  H       1.056684      0.059279      0.502598
  H       0.991806      1.658924     -0.288286
  H       3.023649      3.671751      0.386326
  H       3.972728      4.109835      2.665773
  H       6.100775      1.697669      4.542604
  H       6.756976      3.221572      3.913593
  H       5.146595      3.201497      4.660312
  H       6.342472      0.521459      2.352168
  H       5.386223      0.094273      0.080706
  H       1.924070      0.218210     -3.279495
  H       1.980801     -1.381454     -2.494468
  H      -0.365072     -3.024648      3.266170
  H       0.148679     -4.363340      2.187179
  H      -1.586030     -4.166539      2.604771
  H      -2.512387     -2.105373      3.163757
60
Coordinates from ORCA-job file E -2653.264877541462
  C      -5.047486      0.828771      3.161879
  O      -4.077349     -0.195850      3.203366
  C      -3.326320     -0.447244      2.109180
  C      -3.453562      0.256455      0.906420
  C      -2.622257     -0.069598     -0.178336
  O      -2.721484      0.533708     -1.369471
  C      -3.616535      1.603404     -1.567755
  C      -1.657707     -1.086232     -0.052641
  S      -0.469438     -1.525062     -1.307357
  C      -1.451462     -1.883788     -2.790588
  C      -1.848936     -3.205176     -3.002824
  C      -2.577387     -3.528441     -4.148818
  C      -2.880128     -2.516424     -5.065653
  Cl     -3.789480     -2.908417     -6.504831
  C      -2.454542     -1.198123     -4.861376
  C      -1.727473     -0.881111     -3.715341
  C       0.348729      0.015277     -1.740269
  C       1.082240      0.616197     -0.521380
  N       2.399585      0.289926     -1.147220
  S       3.474473      1.553066     -1.453618
  O       4.531077      0.980703     -2.296518
  O       2.779967      2.779677     -1.880726
  C       4.125636      1.845449      0.186681
  C       3.741722      2.982825      0.894654
  C       4.268339      3.195817      2.170005
  C       5.177279      2.290811      2.739245
  C       5.773485      2.547427      4.099214
  C       5.546163      1.154189      1.998049
  C       5.031180      0.927536      0.723997
  C       1.731169     -0.304864     -2.348705
  C      -1.559822     -1.798132      1.169372
  O      -0.618921     -2.764591      1.225722
  C      -0.434198     -3.493888      2.420883
  C      -2.387872     -1.480872      2.245276
  H      -5.818361      0.630357      2.395714
  H      -4.590378      1.814785      2.963913
  H      -5.524019      0.847913      4.151032
  H      -4.191826      1.044927      0.799978
  H      -3.387753      2.451104     -0.898511
  H      -3.481385      1.925243     -2.608527
  H      -4.665713      1.292207     -1.418161
  H      -1.593668     -3.976060     -2.270547
  H      -2.901042     -4.552471     -4.341059
  H      -2.688880     -0.435008     -5.605921
  H      -1.320224      0.116895     -3.518254
  H       0.981205      0.125393      0.466207
  H       0.925486      1.700566     -0.372846
  H       3.047701      3.688336      0.434726
  H       3.971919      4.085592      2.732488
  H       6.011308      1.607703      4.621489
  H       6.715408      3.118023      4.012561
  H       5.094593      3.135468      4.735850
  H       6.254361      0.439869      2.427329
  H       5.322376      0.053804      0.138460
  H       1.966048      0.225388     -3.289441
  H       2.027665     -1.364449     -2.488432
  H      -0.142021     -2.834756      3.257045
  H       0.376843     -4.207181      2.223748
  H      -1.346104     -4.049487      2.701968
  H      -2.332223     -1.997586      3.200176
60
Coordinates from ORCA-job file E -2653.266897625114
  C      -4.909852      0.854340      3.176159
  O      -3.914426     -0.145583      3.216057
  C      -3.200322     -0.419483      2.103825
  C      -3.390246      0.236534      0.882026
  C      -2.591696     -0.111481     -0.220378
  O      -2.742456      0.444297     -1.428470
  C      -3.662644      1.490860     -1.633574
  C      -1.601489     -1.103609     -0.093126
  S      -0.460694     -1.549289     -1.383969
  C      -1.504556     -1.884670     -2.836280
  C      -2.014135     -3.173009     -2.997983
  C      -2.785386     -3.466885     -4.123460
  C      -3.012776     -2.461966     -5.070255
  Cl     -3.972425     -2.821118     -6.485379
  C      -2.473893     -1.179302     -4.915381
  C      -1.707831     -0.890377     -3.787391
  C       0.364088     -0.015698     -1.818294
  C       1.039687      0.636155     -0.593348
  N       2.381207      0.296217     -1.153327
  S       3.486552      1.536879     -1.425312
  O       4.557137      0.944257     -2.234973
  O       2.830317      2.776173     -1.874527
  C       4.091242      1.820475      0.233113
  C       3.713560      2.971694      0.921514
  C       4.204017      3.179926      2.212050
  C       5.071095      2.256336      2.815419
  C       5.630387      2.507505      4.192255
  C       5.434671      1.105599      2.093216
  C       4.955039      0.883289      0.804837
  C       1.772179     -0.331384     -2.366382
  C      -1.437280     -1.765127      1.148111
  O      -0.470276     -2.703774      1.199851
  C      -0.215031     -3.379291      2.413323
  C      -2.231614     -1.425659      2.242464
  H      -5.705455      0.609680      2.449834
  H      -4.484833      1.842171      2.923816
  H      -5.347266      0.899889      4.182233
  H      -4.150023      1.004408      0.774360
  H      -3.427620      2.365376     -1.002311
  H      -3.569779      1.777171     -2.689166
  H      -4.700344      1.166703     -1.438319
  H      -1.813391     -3.941064     -2.245594
  H      -3.198939     -4.464606     -4.278765
  H      -2.655225     -0.422722     -5.681437
  H      -1.217472      0.075504     -3.610430
  H       0.895278      0.183690      0.406663
  H       0.870841      1.724492     -0.496308
  H       3.052053      3.690737      0.435176
  H       3.911827      4.080501      2.759595
  H       5.827402      1.566095      4.728054
  H       6.588979      3.053013      4.131659
  H       4.947398      3.117579      4.803031
  H       6.110572      0.376687      2.549453
  H       5.242764     -0.001725      0.234465
  H       2.034884      0.182676     -3.308679
  H       2.081758     -1.390692     -2.475775
  H       0.094134     -2.679546      3.209327
  H       0.606114     -4.078721      2.209238
  H      -1.098463     -3.946459      2.755507
  H      -2.127344     -1.903669      3.213462
60
Coordinates from ORCA-job file E -2653.268827806791
  C      -4.737686      0.868735      3.212041
  O      -3.728825     -0.118089      3.231029
  C      -3.054586     -0.403939      2.097859
  C      -3.299162      0.226801      0.871719
  C      -2.537635     -0.134880     -0.252196
  O      -2.730022      0.398345     -1.464284
  C      -3.663211      1.435891     -1.656706
  C      -1.535482     -1.119124     -0.142199
  S      -0.454326     -1.573807     -1.474576
  C      -1.569588     -1.882404     -2.885130
  C      -2.177832     -3.131779     -2.991400
  C      -2.997137     -3.398139     -4.089552
  C      -3.169759     -2.408626     -5.063972
  Cl     -4.188383     -2.738432     -6.444881
  C      -2.532815     -1.166333     -4.963233
  C      -1.721442     -0.903631     -3.860868
  C       0.398502     -0.063267     -1.913835
  C       1.009856      0.651180     -0.690869
  N       2.375042      0.275504     -1.161110
  S       3.528076      1.476894     -1.399377
  O       4.619097      0.836811     -2.141312
  O       2.933184      2.724315     -1.905391
  C       4.057184      1.781283      0.279802
  C       3.687567      2.964163      0.917085
  C       4.120799      3.192465      2.224643
  C       4.923440      2.257486      2.895466
  C       5.423953      2.529526      4.291174
  C       5.280126      1.074162      2.223940
  C       4.856828      0.831317      0.919665
  C       1.831928     -0.393140     -2.381324
  C      -1.311889     -1.749946      1.103911
  O      -0.330725     -2.672675      1.132914
  C      -0.009695     -3.314713      2.348947
  C      -2.067676     -1.394863      2.220488
  H      -5.558355      0.600413      2.523075
  H      -4.335822      1.856608      2.924701
  H      -5.135298      0.928028      4.233704
  H      -4.070226      0.985339      0.778066
  H      -3.414549      2.321521     -1.046713
  H      -3.606882      1.704873     -2.719329
  H      -4.691930      1.107900     -1.424077
  H      -2.017622     -3.891448     -2.220636
  H      -3.490606     -4.364823     -4.203173
  H      -2.678059     -0.420888     -5.747941
  H      -1.162996      0.030718     -3.706726
  H       0.803488      0.255042      0.321260
  H       0.844759      1.744017     -0.665732
  H       3.077145      3.691427      0.378788
  H       3.834336      4.118222      2.731992
  H       5.559700      1.598256      4.862311
  H       6.403745      3.038570      4.262710
  H       4.734944      3.181237      4.849740
  H       5.906384      0.335868      2.733099
  H       5.141044     -0.079416      0.389237
  H       2.138361      0.091827     -3.325619
  H       2.140943     -1.456004     -2.443943
  H       0.323778     -2.590975      3.112862
  H       0.812708     -4.006009      2.123863
  H      -0.866944     -3.887057      2.744724
  H      -1.919755     -1.850336      3.196793
60
Coordinates from ORCA-job file E -2653.270770576679
  C      -4.567573      0.858591      3.252946
  O      -3.552432     -0.121781      3.242526
  C      -2.914725     -0.409897      2.089455
  C      -3.203713      0.212273      0.867565
  C      -2.476081     -0.155017     -0.276541
  O      -2.697405      0.374427     -1.485521
  C      -3.635728      1.411817     -1.656354
  C      -1.469650     -1.141317     -0.191068
  S      -0.446924     -1.601042     -1.560197
  C      -1.633681     -1.868205     -2.925678
  C      -2.337798     -3.068229     -2.974626
  C      -3.205726     -3.300300     -4.043294
  C      -3.328132     -2.330642     -5.044536
  Cl     -4.407911     -2.624089     -6.386905
  C      -2.596420     -1.138187     -5.000124
  C      -1.738581     -0.908489     -3.926170
  C       0.446229     -0.126218     -2.000390
  C       0.998202      0.656201     -0.791789
  N       2.379428      0.233094     -1.163270
  S       3.586675      1.384087     -1.373199
  O       4.692252      0.680418     -2.028321
  O       3.066183      2.630636     -1.953545
  C       4.030830      1.734578      0.320438
  C       3.674788      2.958007      0.885373
  C       4.041481      3.226889      2.205539
  C       4.764558      2.292120      2.961222
  C       5.195654      2.606512      4.371641
  C       5.109405      1.067184      2.361686
  C       4.751659      0.783159      1.045977
  C       1.898242     -0.482379     -2.381807
  C      -1.196734     -1.756303      1.051446
  O      -0.209105     -2.669969      1.050388
  C       0.168004     -3.294320      2.259678
  C      -1.917274     -1.392711      2.188586
  H      -5.410167      0.581045      2.594958
  H      -4.182679      1.847471      2.946727
  H      -4.929393      0.920654      4.287605
  H      -3.979562      0.968322      0.794533
  H      -3.372747      2.297924     -1.053286
  H      -3.606363      1.678090     -2.720660
  H      -4.658175      1.083356     -1.398463
  H      -2.216461     -3.816876     -2.185920
  H      -3.777033     -4.227642     -4.113197
  H      -2.708580     -0.405839     -5.802611
  H      -1.114169     -0.011228     -3.797396
  H       0.723545      0.327839      0.227194
  H       0.851609      1.750363     -0.848578
  H       3.126342      3.684211      0.282659
  H       3.764736      4.184919      2.655519
  H       5.258299      1.697374      4.989035
  H       6.196102      3.074127      4.379010
  H       4.503760      3.309373      4.860012
  H       5.674514      0.328172      2.937292
  H       5.028191     -0.161088      0.573097
  H       2.253448     -0.034830     -3.327117
  H       2.193201     -1.550344     -2.389980
  H       0.525627     -2.557983      3.000026
  H       0.987241     -3.980209      2.008449
  H      -0.665949     -3.870134      2.697688
  H      -1.733332     -1.837963      3.163776
60
Coordinates from ORCA-job file E -2653.272947649426
  C      -4.485393      0.787332      3.272319
  O      -3.466937     -0.189083      3.234036
  C      -2.840730     -0.456616      2.068827
  C      -3.145973      0.184248      0.859216
  C      -2.427224     -0.166436     -0.294489
  O      -2.642840      0.394446     -1.492288
  C      -3.582091      1.437360     -1.637889
  C      -1.421083     -1.163648     -0.234631
  S      -0.425615     -1.612463     -1.619590
  C      -1.674977     -1.832322     -2.940003
  C      -2.455538     -2.983451     -2.925896
  C      -3.372243     -3.189506     -3.960518
  C      -3.466429     -2.248549     -4.989239
  Cl     -4.609327     -2.519384     -6.283689
  C      -2.660085     -1.103119     -5.008790
  C      -1.755544     -0.899027     -3.969315
  C       0.511897     -0.196770     -2.056546
  C       1.014299      0.673815     -0.888389
  N       2.403501      0.195128     -1.152638
  S       3.662437      1.293511     -1.355049
  O       4.765136      0.523685     -1.930003
  O       3.207259      2.528156     -2.003378
  C       4.041651      1.700453      0.341900
  C       3.703799      2.961038      0.833929
  C       4.011065      3.277497      2.158787
  C       4.655969      2.354070      2.994269
  C       5.021755      2.717705      4.412089
  C       4.985372      1.092167      2.467574
  C       4.686629      0.759424      1.147872
  C       1.974409     -0.583594     -2.354345
  C      -1.127029     -1.786102      0.999174
  O      -0.136363     -2.693289      0.972572
  C       0.266880     -3.324228      2.170833
  C      -1.838044     -1.433343      2.146323
  H      -5.335508      0.517426      2.620839
  H      -4.109024      1.783323      2.978595
  H      -4.833606      0.829579      4.312726
  H      -3.921366      0.942616      0.808876
  H      -3.320516      2.306629     -1.010256
  H      -3.548730      1.729091     -2.695363
  H      -4.604897      1.102410     -1.391001
  H      -2.360920     -3.715017     -2.117892
  H      -4.006136     -4.078016     -3.979807
  H      -2.753750     -0.388903     -5.829641
  H      -1.082792     -0.033479     -3.878707
  H       0.671775      0.433769      0.132805
  H       0.899061      1.761694     -1.046416
  H       3.212886      3.678052      0.173544
  H       3.746644      4.264880      2.549404
  H       5.013487      1.836487      5.071700
  H       6.037483      3.148508      4.454833
  H       4.330612      3.466147      4.828520
  H       5.490715      0.360196      3.104875
  H       4.950646     -0.216533      0.736338
  H       2.376221     -0.181970     -3.300966
  H       2.243587     -1.655315     -2.297203
  H       0.632869     -2.590342      2.909237
  H       1.086335     -4.001742      1.898430
  H      -0.553887     -3.909823      2.620349
  H      -1.639778     -1.888769      3.114646
60
Coordinates from ORCA-job file E -2653.275510078443
  C      -4.297243      0.788424      3.310681
  O      -3.295061     -0.203316      3.245184
  C      -2.699528     -0.474644      2.063903
  C      -3.024683      0.177005      0.865183
  C      -2.337843     -0.177455     -0.305789
  O      -2.563789      0.400252     -1.494597
  C      -3.491112      1.457558     -1.614221
  C      -1.349941     -1.193534     -0.277746
  S      -0.403012     -1.649065     -1.694227
  C      -1.717599     -1.818882     -2.962607
  C      -2.576341     -2.910128     -2.883322
  C      -3.542508     -3.081179     -3.879278
  C      -3.606232     -2.169671     -4.935805
  Cl     -4.811093     -2.399907     -6.181934
  C      -2.721712     -1.085985     -5.021094
  C      -1.769288     -0.915589     -4.019268
  C       0.572124     -0.281212     -2.143064
  C       1.017993      0.673641     -1.021220
  N       2.411626      0.162406     -1.168411
  S       3.704321      1.227869     -1.334526
  O       4.820241      0.416131     -1.819261
  O       3.314286      2.450433     -2.045523
  C       3.994791      1.677905      0.369265
  C       3.665609      2.962080      0.802997
  C       3.903301      3.311147      2.134026
  C       4.470174      2.396958      3.033965
  C       4.762070      2.794101      4.459702
  C       4.792614      1.110861      2.565362
  C       4.562952      0.745662      1.240583
  C       2.046215     -0.680341     -2.346986
  C      -1.030429     -1.821965      0.946932
  O      -0.052571     -2.742341      0.892368
  C       0.375059     -3.378989      2.079562
  C      -1.708030     -1.463591      2.112884
  H      -5.166296      0.534224      2.677979
  H      -3.912573      1.779884      3.012032
  H      -4.620658      0.831896      4.359095
  H      -3.788334      0.948280      0.838759
  H      -3.208032      2.315822     -0.980747
  H      -3.470100      1.759546     -2.669140
  H      -4.514143      1.133010     -1.354958
  H      -2.507457     -3.621751     -2.055161
  H      -4.239085     -3.921105     -3.846599
  H      -2.794003     -0.392736     -5.861639
  H      -1.038005     -0.094814     -3.974981
  H       0.609492      0.515718     -0.008304
  H       0.931137      1.747294     -1.269937
  H       3.235560      3.671575      0.094119
  H       3.645274      4.317153      2.478280
  H       4.687509      1.934347      5.143249
  H       5.786115      3.196863      4.550604
  H       4.070043      3.574449      4.811153
  H       5.237527      0.385210      3.252889
  H       4.822191     -0.250017      0.875795
  H       2.496562     -0.325260     -3.290516
  H       2.305804     -1.748318     -2.222016
  H       0.768985     -2.649266      2.807715
  H       1.178845     -4.066163      1.785477
  H      -0.440573     -3.954915      2.550536
  H      -1.491145     -1.925564      3.074100
60
Coordinates from ORCA-job file E -2653.278198089301
  C      -4.085298      0.758047      3.478852
  O      -3.160892     -0.300438      3.356374
  C      -2.611416     -0.568619      2.152372
  C      -2.909184      0.149454      0.986822
  C      -2.271266     -0.197309     -0.215339
  O      -2.472018      0.463104     -1.367140
  C      -3.335074      1.575323     -1.423924
  C      -1.367224     -1.268933     -0.259291
  S      -0.428402     -1.725253     -1.719106
  C      -1.726893     -1.821523     -3.010723
  C      -2.652968     -2.863603     -2.978889
  C      -3.601271     -2.965130     -3.998850
  C      -3.587472     -2.024345     -5.035842
  Cl     -4.765317     -2.141107     -6.321399
  C      -2.642895     -0.995107     -5.070791
  C      -1.701625     -0.897979     -4.047689
  C       0.619060     -0.430093     -2.175975
  C       1.011655      0.622606     -1.135949
  N       2.396147      0.073953     -1.140906
  S       3.718612      1.093878     -1.317880
  O       4.836451      0.201135     -1.645982
  O       3.423656      2.260995     -2.169346
  C       3.929834      1.689865      0.355336
  C       3.633644      3.014000      0.667273
  C       3.824034      3.458352      1.977341
  C       4.311903      2.596816      2.971584
  C       4.557633      3.094088      4.372507
  C       4.602260      1.265352      2.622797
  C       4.418128      0.807548      1.321326
  C       2.090255     -0.862115     -2.263855
  C      -1.070376     -1.969140      0.931678
  O      -0.156030     -2.954855      0.822816
  C       0.247111     -3.666260      1.973614
  C      -1.690069     -1.627411      2.132997
  H      -4.981638      0.592605      2.855159
  H      -3.632826      1.727953      3.205969
  H      -4.386371      0.789400      4.534128
  H      -3.611712      0.976594      1.007740
  H      -2.999877      2.383267     -0.750783
  H      -3.303295      1.933266     -2.460989
  H      -4.373256      1.295952     -1.171396
  H      -2.644366     -3.591687     -2.163487
  H      -4.342467     -3.766049     -4.001203
  H      -2.653341     -0.281856     -5.897557
  H      -0.929669     -0.119820     -4.009166
  H       0.533912      0.562639     -0.139344
  H       0.966919      1.672593     -1.479369
  H       3.270267      3.679590     -0.118367
  H       3.594591      4.497486      2.230601
  H       4.420606      2.294095      5.115736
  H       5.592674      3.464280      4.480101
  H       3.885842      3.926568      4.631620
  H       4.985567      0.581071      3.385038
  H       4.654220     -0.220796      1.042199
  H       2.606868     -0.590387     -3.203422
  H       2.347658     -1.911736     -2.030325
  H       0.704785     -2.997102      2.722923
  H       0.994824     -4.396177      1.637328
  H      -0.599741     -4.202203      2.436756
  H      -1.484871     -2.144840      3.066796
60
Coordinates from ORCA-job file E -2653.280882482821
  C      -3.940890      0.724777      3.514138
  O      -3.034293     -0.346606      3.372419
  C      -2.499347     -0.609235      2.159491
  C      -2.799460      0.126414      1.006044
  C      -2.180680     -0.214299     -0.207169
  O      -2.376815      0.469944     -1.347096
  C      -3.223013      1.595786     -1.381714
  C      -1.300431     -1.299467     -0.278759
  S      -0.402795     -1.764347     -1.767336
  C      -1.751223     -1.791836     -3.014538
  C      -2.766269     -2.744019     -2.915361
  C      -3.752280     -2.797525     -3.902901
  C      -3.685167     -1.903474     -4.978495
  Cl     -4.906423     -1.961751     -6.227963
  C      -2.652488     -0.967517     -5.080934
  C      -1.675452     -0.916459     -4.088471
  C       0.678608     -0.519632     -2.236118
  C       1.043164      0.603684     -1.266014
  N       2.411714      0.031343     -1.161171
  S       3.763149      1.018615     -1.300187
  O       4.879370      0.091027     -1.527601
  O       3.543488      2.159567     -2.210818
  C       3.889955      1.670104      0.361780
  C       3.611888      3.010815      0.612359
  C       3.731089      3.492810      1.917588
  C       4.129063      2.651529      2.968001
  C       4.296987      3.186721      4.365814
  C       4.403111      1.302314      2.680483
  C       4.289808      0.807720      1.384761
  C       2.148885     -0.958487     -2.246926
  C      -0.993437     -2.013881      0.901811
  O      -0.094954     -3.013885      0.771524
  C       0.314207     -3.739633      1.911384
  C      -1.591215     -1.678400      2.116169
  H      -4.844824      0.580160      2.895989
  H      -3.475278      1.690325      3.247363
  H      -4.232954      0.750344      4.572210
  H      -3.488232      0.964223      1.046071
  H      -2.872884      2.387106     -0.696340
  H      -3.190226      1.970203     -2.412971
  H      -4.263957      1.327073     -1.128983
  H      -2.800086     -3.437485     -2.071073
  H      -4.563426     -3.525578     -3.850728
  H      -2.623808     -0.288802     -5.935587
  H      -0.841746     -0.204364     -4.102402
  H       0.512612      0.628992     -0.294231
  H       1.042512      1.625264     -1.689815
  H       3.316494      3.659020     -0.214983
  H       3.514999      4.544998      2.123069
  H       4.087144      2.415141      5.122226
  H       5.333511      3.531053      4.530898
  H       3.634915      4.045790      4.553913
  H       4.716293      0.633224      3.486740
  H       4.511971     -0.235625      1.154106
  H       2.704831     -0.731411     -3.176406
  H       2.390973     -1.996522     -1.953574
  H       0.790262     -3.081753      2.659470
  H       1.047669     -4.477063      1.560210
  H      -0.534072     -4.267609      2.381292
  H      -1.380546     -2.209418      3.040842
60
Coordinates from ORCA-job file E -2653.283370286770
  C      -3.841995      0.656558      3.549424
  O      -2.964705     -0.434811      3.380716
  C      -2.429568     -0.675758      2.163760
  C      -2.704187      0.100185      1.030145
  C      -2.089663     -0.224874     -0.189516
  O      -2.255891      0.497911     -1.311578
  C      -3.076294      1.643090     -1.322163
  C      -1.244885     -1.334326     -0.289537
  S      -0.376449     -1.794761     -1.801249
  C      -1.761495     -1.768422     -3.009070
  C      -2.847552     -2.628517     -2.844067
  C      -3.861815     -2.641355     -3.803594
  C      -3.753319     -1.800480     -4.918372
  Cl     -5.010489     -1.807403     -6.132927
  C      -2.653367     -0.955723     -5.084781
  C      -1.647790     -0.944229     -4.119382
  C       0.735538     -0.598460     -2.278845
  C       1.070493      0.595180     -1.388729
  N       2.419219      0.010007     -1.168324
  S       3.796514      0.965215     -1.276457
  O       4.903313      0.009492     -1.420736
  O       3.642738      2.078676     -2.234021
  C       3.861649      1.673535      0.365273
  C       3.608501      3.028790      0.554956
  C       3.675718      3.553979      1.847123
  C       3.995294      2.740285      2.944905
  C       4.106515      3.320347      4.330515
  C       4.245284      1.374622      2.718417
  C       4.183328      0.837372      1.436350
  C       2.202067     -1.040349     -2.205967
  C      -0.958036     -2.085993      0.871667
  O      -0.091121     -3.109219      0.713734
  C       0.292923     -3.879212      1.832709
  C      -1.549081     -1.767081      2.093854
  H      -4.745816      0.555682      2.922603
  H      -3.348210      1.616245      3.314146
  H      -4.139741      0.659049      4.606155
  H      -3.368915      0.956061      1.091296
  H      -2.717321      2.405708     -0.609354
  H      -3.023246      2.046955     -2.341332
  H      -4.125775      1.390201     -1.089231
  H      -2.916335     -3.280173     -1.969250
  H      -4.728605     -3.295897     -3.698342
  H      -2.595603     -0.313869     -5.966126
  H      -0.769606     -0.291028     -4.180660
  H       0.487171      0.706543     -0.454251
  H       1.114071      1.577543     -1.894842
  H       3.371125      3.654364     -0.307960
  H       3.479190      4.618258      2.004872
  H       3.833246      2.582941      5.100455
  H       5.143132      3.639972      4.538630
  H       3.462341      4.204347      4.453398
  H       4.497795      0.726433      3.562184
  H       4.385198     -0.219507      1.253628
  H       2.796265     -0.862949     -3.122613
  H       2.425138     -2.061225     -1.847519
  H       0.784642     -3.257370      2.601095
  H       1.006429     -4.626619      1.462215
  H      -0.571727     -4.396532      2.284247
  H      -1.356233     -2.329401      3.003820
60
Coordinates from ORCA-job file E -2653.285406929468
  C      -3.707704      0.606429      3.590300
  O      -2.850628     -0.497041      3.398314
  C      -2.330016     -0.729163      2.172882
  C      -2.602720      0.066544      1.052821
  C      -2.008198     -0.254177     -0.177984
  O      -2.180731      0.482465     -1.291693
  C      -2.992655      1.633770     -1.280959
  C      -1.186705     -1.377643     -0.302894
  S      -0.354209     -1.841858     -1.840083
  C      -1.768160     -1.724100     -3.009247
  C      -2.930058     -2.461479     -2.778059
  C      -3.971646     -2.408207     -3.705994
  C      -3.816639     -1.626001     -4.857297
  Cl     -5.108110     -1.551326     -6.033243
  C      -2.643776     -0.903921     -5.089292
  C      -1.610238     -0.957160     -4.154444
  C       0.800524     -0.701046     -2.320840
  C       1.112972      0.547558     -1.502548
  N       2.435660     -0.044209     -1.171416
  S       3.834216      0.882478     -1.243985
  O       4.930026     -0.095802     -1.292555
  O       3.748360      1.960330     -2.249791
  C       3.823553      1.654155      0.371061
  C       3.586530      3.019797      0.495189
  C       3.588655      3.592527      1.768956
  C       3.826865      2.815715      2.913112
  C       3.866171      3.445304      4.280889
  C       4.062666      1.438182      2.752342
  C       4.065328      0.853659      1.489586
  C       2.257442     -1.149911     -2.158164
  C      -0.899261     -2.148718      0.845436
  O      -0.054689     -3.187732      0.663982
  C       0.326176     -3.979852      1.768499
  C      -1.469675     -1.835008      2.078788
  H      -4.618808      0.529840      2.970446
  H      -3.199983      1.561041      3.363831
  H      -3.995953      0.599119      4.649724
  H      -3.252397      0.932553      1.132129
  H      -2.619429      2.386867     -0.565183
  H      -2.949130      2.047490     -2.296683
  H      -4.041031      1.386588     -1.037189
  H      -3.036701     -3.066811     -1.874359
  H      -4.896142     -2.965891     -3.547830
  H      -2.551016     -0.304671     -5.997133
  H      -0.677247     -0.394935     -4.270405
  H       0.483728      0.735226     -0.611548
  H       1.205177      1.490138     -2.073730
  H       3.410635      3.615457     -0.402777
  H       3.403871      4.665198      1.875678
  H       3.529870      2.743060      5.058862
  H       4.894946      3.751617      4.541508
  H       3.235862      4.346268      4.331558
  H       4.251631      0.818274      3.633143
  H       4.254972     -0.213007      1.358062
  H       2.894102     -1.024289     -3.054867
  H       2.455834     -2.150701     -1.735896
  H       0.835664     -3.377500      2.540881
  H       1.023061     -4.734462      1.381110
  H      -0.543232     -4.488252      2.221245
  H      -1.277611     -2.412777      2.979253
60
Coordinates from ORCA-job file E -2653.286671370446
  C      -3.580960      0.536132      3.666215
  O      -2.741399     -0.573027      3.436404
  C      -2.252690     -0.791955      2.197337
  C      -2.539237      0.022267      1.093318
  C      -1.975815     -0.293577     -0.154569
  O      -2.159883      0.457811     -1.257565
  C      -2.957540      1.618079     -1.216863
  C      -1.173552     -1.429768     -0.307135
  S      -0.372441     -1.882067     -1.869168
  C      -1.786762     -1.680464     -3.023541
  C      -3.006460     -2.305181     -2.766892
  C      -4.041968     -2.191549     -3.694794
  C      -3.825475     -1.461924     -4.871345
  Cl     -5.110182     -1.313961     -6.046478
  C      -2.597992     -0.849970     -5.127106
  C      -1.568352     -0.963051     -4.191961
  C       0.830020     -0.792487     -2.341856
  C       1.121730      0.508008     -1.600254
  N       2.404417     -0.092064     -1.145514
  S       3.836865      0.776278     -1.183528
  O       4.890759     -0.246072     -1.145776
  O       3.835976      1.810183     -2.235980
  C       3.788517      1.625448      0.391414
  C       3.599267      3.003263      0.437628
  C       3.561669      3.638785      1.680985
  C       3.713497      2.912297      2.871323
  C       3.706727      3.608101      4.208291
  C       3.905152      1.520375      2.789150
  C       3.945775      0.872865      1.557619
  C       2.264355     -1.257614     -2.067208
  C      -0.868556     -2.215119      0.823761
  O      -0.036749     -3.255450      0.607373
  C       0.372969     -4.060670      1.690856
  C      -1.407165     -1.908023      2.072394
  H      -4.507507      0.479538      3.067795
  H      -3.068439      1.488798      3.443273
  H      -3.843824      0.514036      4.731844
  H      -3.174141      0.897172      1.195585
  H      -2.561101      2.359699     -0.501579
  H      -2.931650      2.043150     -2.228428
  H      -4.003469      1.381038     -0.953434
  H      -3.160932     -2.869960     -1.844220
  H      -5.010291     -2.662369     -3.517731
  H      -2.458221     -0.287438     -6.052690
  H      -0.593837     -0.481064     -4.325725
  H       0.445118      0.777736     -0.769290
  H       1.274413      1.399654     -2.235903
  H       3.486970      3.558480     -0.496180
  H       3.412075      4.721683      1.726965
  H       3.301887      2.959490      4.999702
  H       4.731803      3.887467      4.509923
  H       3.112462      4.534130      4.182192
  H       4.026807      0.939387      3.707834
  H       4.098464     -0.205346      1.486691
  H       2.950567     -1.197884     -2.933288
  H       2.420599     -2.231978     -1.574440
  H       0.906610     -3.469625      2.455399
  H       1.056502     -4.811958      1.274480
  H      -0.483560     -4.572912      2.163101
  H      -1.201825     -2.496824      2.963089
60
Coordinates from ORCA-job file E -2653.287683021243
  C      -3.474835      0.497717      3.693088
  O      -2.653317     -0.621900      3.446875
  C      -2.177690     -0.836031      2.199020
  C      -2.468975     -0.007946      1.107876
  C      -1.924938     -0.317071     -0.149165
  O      -2.124492      0.447193     -1.243258
  C      -2.933527      1.599375     -1.180002
  C      -1.139204     -1.461835     -0.327547
  S      -0.352335     -1.907923     -1.906403
  C      -1.777649     -1.617257     -3.020731
  C      -3.029396     -2.148719     -2.707295
  C      -4.088566     -1.989774     -3.601402
  C      -3.868272     -1.312132     -4.805784
  Cl     -5.185170     -1.118006     -5.939882
  C      -2.609741     -0.794249     -5.121534
  C      -1.555330     -0.953658     -4.220178
  C       0.894770     -0.892349     -2.374354
  C       1.182873      0.452796     -1.714755
  N       2.423602     -0.140126     -1.147725
  S       3.873473      0.708145     -1.144071
  O       4.912668     -0.322554     -1.019217
  O       3.933376      1.706671     -2.227635
  C       3.753949      1.603927      0.402114
  C       3.594526      2.987001      0.399732
  C       3.505248      3.659210      1.621157
  C       3.576365      2.965169      2.838349
  C       3.515148      3.698647      4.153067
  C       3.738571      1.568323      2.805655
  C       3.831774      0.884134      1.597128
  C       2.311406     -1.352901     -2.013323
  C      -0.822693     -2.258577      0.795407
  O      -0.003394     -3.309363      0.564711
  C       0.402090     -4.127509      1.641273
  C      -1.345459     -1.957476      2.053042
  H      -4.406468      0.460571      3.099983
  H      -2.949880      1.445321      3.475201
  H      -3.730942      0.469839      4.760687
  H      -3.094175      0.871561      1.228747
  H      -2.533179      2.338715     -0.463904
  H      -2.926270      2.033499     -2.188293
  H      -3.972677      1.349829     -0.901893
  H      -3.190429     -2.672637     -1.762210
  H      -5.078863     -2.388490     -3.375832
  H      -2.462587     -0.273544     -6.069303
  H      -0.557074     -0.554531     -4.418689
  H       0.473083      0.799957     -0.942366
  H       1.396940      1.290064     -2.404717
  H       3.548675      3.517557     -0.552839
  H       3.380694      4.745646      1.628435
  H       3.046300      3.084135      4.937320
  H       4.529560      3.957503      4.505539
  H       2.950701      4.639979      4.067503
  H       3.797762      1.012277      3.745468
  H       3.965398     -0.198564      1.566253
  H       3.034600     -1.338393     -2.850710
  H       2.437203     -2.300574     -1.462676
  H       0.941797     -3.546258      2.409558
  H       1.078621     -4.881935      1.218452
  H      -0.458288     -4.635681      2.111782
  H      -1.135365     -2.556798      2.935769
60
Coordinates from ORCA-job file E -2653.288234095782
  C      -3.320733      0.387250      3.807080
  O      -2.562254     -0.762152      3.503751
  C      -2.113670     -0.949015      2.242069
  C      -2.373735     -0.063115      1.189210
  C      -1.860812     -0.350895     -0.086526
  O      -2.037839      0.465673     -1.147746
  C      -2.811783      1.637108     -1.029369
  C      -1.141960     -1.531281     -0.320310
  S      -0.369615     -1.950786     -1.924912
  C      -1.769326     -1.577774     -3.031321
  C      -3.050752     -2.043021     -2.729348
  C      -4.093648     -1.829610     -3.629220
  C      -3.834123     -1.161656     -4.831369
  Cl     -5.135077     -0.897467     -5.969283
  C      -2.548385     -0.712077     -5.138922
  C      -1.507104     -0.927892     -4.231905
  C       0.930603     -0.996752     -2.373237
  C       1.205286      0.394444     -1.807629
  N       2.394287     -0.172783     -1.112918
  S       3.866910      0.640463     -1.076222
  O       4.876939     -0.401471     -0.849157
  O       4.002851      1.577826     -2.204514
  C       3.702741      1.625591      0.407688
  C       3.613008      3.011871      0.315400
  C       3.494628      3.761044      1.488339
  C       3.468523      3.139796      2.745547
  C       3.376926      3.954887      4.009829
  C       3.560670      1.737168      2.804154
  C       3.681759      0.976222      1.644920
  C       2.314698     -1.447323     -1.892184
  C      -0.853654     -2.386505      0.765530
  O      -0.096068     -3.469837      0.482367
  C       0.267238     -4.356207      1.518620
  C      -1.346271     -2.107904      2.040484
  H      -4.259982      0.423311      3.225865
  H      -2.749393      1.314666      3.621132
  H      -3.565867      0.328121      4.875996
  H      -2.949449      0.843174      1.352585
  H      -2.381515      2.337867     -0.291944
  H      -2.805844      2.110460     -2.019871
  H      -3.854158      1.407524     -0.746030
  H      -3.244290     -2.557647     -1.785425
  H      -5.103839     -2.178652     -3.408910
  H      -2.366461     -0.198434     -6.084441
  H      -0.489600     -0.589917     -4.441275
  H       0.458436      0.820769     -1.115867
  H       1.483041      1.161379     -2.553936
  H       3.643215      3.484507     -0.667735
  H       3.424212      4.850514      1.425392
  H       2.829767      3.416305      4.799281
  H       4.383441      4.178764      4.406016
  H       2.873945      4.918602      3.836567
  H       3.542138      1.238018      3.777100
  H       3.762418     -0.111517      1.684384
  H       3.081022     -1.502287     -2.687785
  H       2.395998     -2.350936     -1.265487
  H       0.839324     -3.840986      2.310268
  H       0.901425     -5.126153      1.059694
  H      -0.617753     -4.838737      1.970397
  H      -1.160487     -2.752533      2.896633
60
Coordinates from ORCA-job file E -2653.288436704775
  C      -3.197982      0.446876      3.833257
  O      -2.437635     -0.700952      3.527658
  C      -2.035052     -0.912927      2.254184
  C      -2.339313     -0.052242      1.192474
  C      -1.868231     -0.363925     -0.094077
  O      -2.093321      0.427389     -1.164922
  C      -2.886556      1.585989     -1.044751
  C      -1.142973     -1.543759     -0.326335
  S      -0.390336     -1.984615     -1.936282
  C      -1.768101     -1.571284     -3.049008
  C      -3.060302     -2.012274     -2.757232
  C      -4.095556     -1.759417     -3.655536
  C      -3.819623     -1.071602     -4.842637
  Cl     -5.115929     -0.746650     -5.969698
  C      -2.523474     -0.645247     -5.140031
  C      -1.488876     -0.904243     -4.237065
  C       0.932804     -1.041258     -2.382508
  C       1.205018      0.349948     -1.808831
  N       2.388191     -0.221226     -1.104845
  S       3.860599      0.590737     -1.059789
  O       4.871480     -0.445344     -0.817519
  O       4.002221      1.522766     -2.189542
  C       3.672731      1.581947      0.416944
  C       3.588995      2.968201      0.313309
  C       3.445195      3.725909      1.477961
  C       3.388587      3.113803      2.738473
  C       3.266081      3.938392      3.994357
  C       3.476720      1.711322      2.808683
  C       3.622057      0.941283      1.658002
  C       2.307499     -1.499668     -1.878585
  C      -0.818786     -2.377136      0.766387
  O      -0.058854     -3.457434      0.480796
  C       0.344431     -4.320204      1.522339
  C      -1.270223     -2.072594      2.050853
  H      -4.158492      0.459438      3.287044
  H      -2.645479      1.376296      3.605573
  H      -3.402527      0.408709      4.911593
  H      -2.916233      0.853122      1.355927
  H      -2.443192      2.313749     -0.342211
  H      -2.928442      2.034489     -2.045944
  H      -3.912522      1.343633     -0.715874
  H      -3.266299     -2.538275     -1.822013
  H      -5.113850     -2.089822     -3.443729
  H      -2.328711     -0.114182     -6.073467
  H      -0.460339     -0.593296     -4.437460
  H       0.458589      0.783007     -1.123229
  H       1.491759      1.113854     -2.554986
  H       3.639227      3.433010     -0.672782
  H       3.376040      4.815070      1.405670
  H       2.696821      3.407553      4.773296
  H       4.262219      4.162193      4.415841
  H       2.771175      4.902311      3.800770
  H       3.432075      1.219229      3.784573
  H       3.695563     -0.146551      1.706675
  H       3.081118     -1.568201     -2.665758
  H       2.376291     -2.399374     -1.244737
  H       0.937401     -3.785678      2.285113
  H       0.969625     -5.094297      1.058226
  H      -0.521501     -4.800016      2.012159
  H      -1.051801     -2.696532      2.914747
60
Coordinates from ORCA-job file E -2653.288580127939
  C      -3.078705      0.559531      3.823720
  O      -2.335138     -0.601840      3.527825
  C      -1.966087     -0.848101      2.249835
  C      -2.276563     -0.001728      1.178362
  C      -1.837271     -0.346473     -0.110447
  O      -2.056084      0.435459     -1.188933
  C      -2.826716      1.610498     -1.077011
  C      -1.136687     -1.544126     -0.335903
  S      -0.388792     -2.011851     -1.939849
  C      -1.757423     -1.611340     -3.057018
  C      -3.038060     -2.094162     -2.779950
  C      -4.081690     -1.828249     -3.664801
  C      -3.827324     -1.083017     -4.821315
  Cl     -5.139376     -0.731994     -5.921525
  C      -2.541566     -0.617133     -5.106464
  C      -1.498759     -0.891291     -4.219077
  C       0.924368     -1.051979     -2.394476
  C       1.180672      0.325986     -1.780369
  N       2.386916     -0.244332     -1.115919
  S       3.838706      0.606175     -1.086415
  O       4.882943     -0.401154     -0.873480
  O       3.935381      1.553903     -2.206687
  C       3.635775      1.564505      0.409719
  C       3.523720      2.951048      0.331014
  C       3.356254      3.685009      1.507916
  C       3.302843      3.049968      2.757400
  C       3.149636      3.849151      4.026700
  C       3.422041      1.649046      2.802850
  C       3.591193      0.902649      1.639830
  C       2.310314     -1.505283     -1.917334
  C      -0.805399     -2.361987      0.767041
  O      -0.063619     -3.456360      0.490269
  C       0.349747     -4.301600      1.542777
  C      -1.226845     -2.023712      2.053716
  H      -4.051160      0.567699      3.299109
  H      -2.524222      1.478776      3.562384
  H      -3.259025      0.547458      4.906919
  H      -2.830111      0.918495      1.337654
  H      -2.355037      2.345469     -0.401139
  H      -2.883205      2.037149     -2.086965
  H      -3.848868      1.393334     -0.720198
  H      -3.228632     -2.659933     -1.864685
  H      -5.091139     -2.190991     -3.463767
  H      -2.362007     -0.041258     -6.016164
  H      -0.475880     -0.554412     -4.408384
  H       0.440587      0.726541     -1.068014
  H       1.440340      1.114197     -2.510827
  H       3.566127      3.434618     -0.646324
  H       3.262643      4.773481      1.453433
  H       2.582893      3.292830      4.789498
  H       4.136194      4.085541      4.463306
  H       2.636319      4.805454      3.843897
  H       3.379353      1.138123      3.769200
  H       3.682773     -0.184443      1.671713
  H       3.071553     -1.550518     -2.717996
  H       2.395758     -2.417458     -1.303188
  H       0.969650     -3.759664      2.278299
  H       0.950416     -5.097133      1.082714
  H      -0.512457     -4.753974      2.063962
  H      -1.001268     -2.634596      2.925063
60
Coordinates from ORCA-job file E -2653.288658658717
  C      -3.077114      0.550365      3.829417
  O      -2.319320     -0.601148      3.531843
  C      -1.955383     -0.845880      2.252006
  C      -2.285260     -0.007285      1.179891
  C      -1.850535     -0.350437     -0.110725
  O      -2.089975      0.423025     -1.191575
  C      -2.877715      1.586710     -1.079916
  C      -1.136415     -1.539375     -0.337515
  S      -0.388620     -1.999223     -1.944110
  C      -1.760176     -1.589873     -3.054880
  C      -3.039123     -2.077837     -2.778852
  C      -4.085807     -1.804459     -3.657927
  C      -3.835269     -1.049731     -4.809091
  Cl     -5.149829     -0.694442     -5.904922
  C      -2.550652     -0.581445     -5.094852
  C      -1.505503     -0.861154     -4.212186
  C       0.933284     -1.057471     -2.397409
  C       1.207601      0.323683     -1.799116
  N       2.396606     -0.260047     -1.116970
  S       3.860757      0.567334     -1.067484
  O       4.883536     -0.455939     -0.828054
  O       3.993989      1.505491     -2.192294
  C       3.644007      1.539723      0.417846
  C       3.557340      2.927241      0.326909
  C       3.377700      3.673109      1.494409
  C       3.286604      3.048782      2.747025
  C       3.120148      3.859988      4.006855
  C       3.380278      1.646334      2.804972
  C       3.561763      0.888420      1.651444
  C       2.310646     -1.524281     -1.909802
  C      -0.784415     -2.347789      0.765618
  O      -0.034244     -3.435655      0.485370
  C       0.395116     -4.275017      1.536262
  C      -1.201479     -2.011780      2.054119
  H      -4.051983      0.544503      3.309201
  H      -2.536450      1.476772      3.564394
  H      -3.252220      0.537409      4.913467
  H      -2.850930      0.905365      1.340314
  H      -2.409094      2.334727     -0.416216
  H      -2.953584      2.003306     -2.092827
  H      -3.891610      1.356351     -0.708302
  H      -3.226921     -2.652373     -1.868637
  H      -5.094096     -2.170862     -3.457799
  H      -2.373611     -0.000678     -6.001900
  H      -0.483417     -0.521841     -4.399279
  H       0.467908      0.744966     -1.098876
  H       1.487974      1.098327     -2.536222
  H       3.629652      3.402724     -0.652740
  H       3.305333      4.762643      1.429810
  H       2.525535      3.320092      4.760148
  H       4.100904      4.080621      4.464293
  H       2.629550      4.824505      3.805630
  H       3.309096      1.143472      3.773796
  H       3.634608     -0.199713      1.693941
  H       3.076423     -1.582968     -2.705459
  H       2.380492     -2.433706     -1.290268
  H       1.015657     -3.725556      2.265651
  H       0.999521     -5.065838      1.072931
  H      -0.458811     -4.734254      2.064942
  H      -0.962472     -2.617934      2.925198
60
Coordinates from ORCA-job file E -2653.288715261279
  C      -3.013170      0.551099      3.845188
  O      -2.266538     -0.605550      3.540103
  C      -1.916626     -0.852186      2.256926
  C      -2.249531     -0.009831      1.188522
  C      -1.828636     -0.354834     -0.106062
  O      -2.071413      0.421291     -1.184453
  C      -2.852664      1.588407     -1.066227
  C      -1.127188     -1.548924     -0.340505
  S      -0.388780     -2.004605     -1.953499
  C      -1.762153     -1.576102     -3.053008
  C      -3.042961     -2.058481     -2.775577
  C      -4.091385     -1.771106     -3.647875
  C      -3.840328     -1.009055     -4.794344
  Cl     -5.155880     -0.639014     -5.884052
  C      -2.554331     -0.545378     -5.080798
  C      -1.507567     -0.838292     -4.204344
  C       0.940144     -1.074047     -2.403914
  C       1.221210      0.307500     -1.809977
  N       2.398550     -0.283805     -1.115863
  S       3.867653      0.532175     -1.044000
  O       4.876020     -0.497229     -0.770726
  O       4.035793      1.455068     -2.177280
  C       3.624529      1.524499      0.424036
  C       3.555960      2.911634      0.315588
  C       3.355598      3.672946      1.469676
  C       3.225815      3.063977      2.726405
  C       3.036975      3.890937      3.972669
  C       3.302155      1.661264      2.802321
  C       3.504085      0.888491      1.662322
  C       2.312051     -1.547385     -1.907048
  C      -0.771453     -2.361499      0.758080
  O      -0.031423     -3.454572      0.469987
  C       0.400653     -4.298600      1.515954
  C      -1.174226     -2.024440      2.050704
  H      -3.991414      0.553969      3.331229
  H      -2.466933      1.473836      3.578597
  H      -3.181303      0.537435      4.930359
  H      -2.806043      0.907563      1.354897
  H      -2.372941      2.335616     -0.409349
  H      -2.938634      2.003281     -2.079086
  H      -3.863169      1.363091     -0.682489
  H      -3.230537     -2.641188     -1.870564
  H      -5.100768     -2.134400     -3.447725
  H      -2.376939      0.040527     -5.984447
  H      -0.483500     -0.504393     -4.391216
  H       0.478446      0.736771     -1.117300
  H       1.513426      1.076954     -2.547906
  H       3.658738      3.375203     -0.667090
  H       3.298145      4.762385      1.390965
  H       2.414479      3.367276      4.714875
  H       4.008025      4.102569      4.454432
  H       2.565806      4.859997      3.748188
  H       3.201731      1.170104      3.774506
  H       3.564501     -0.199759      1.719596
  H       3.082384     -1.610664     -2.698243
  H       2.373437     -2.456539     -1.286431
  H       1.031756     -3.754623      2.240450
  H       0.994923     -5.093462      1.046473
  H      -0.452316     -4.751897      2.051291
  H      -0.932238     -2.634005      2.918558
60
Coordinates from ORCA-job file E -2653.288758806246
  C      -2.838763      0.579043      3.879468
  O      -2.110569     -0.585238      3.559999
  C      -1.802974     -0.843486      2.268541
  C      -2.154335     -0.001183      1.205898
  C      -1.775929     -0.358252     -0.098343
  O      -2.036615      0.418571     -1.172386
  C      -2.803815      1.593004     -1.038039
  C      -1.100456     -1.564164     -0.347490
  S      -0.390210     -2.024510     -1.973910
  C      -1.762374     -1.550680     -3.051335
  C      -3.044245     -2.033774     -2.780006
  C      -4.097552     -1.707300     -3.632249
  C      -3.849757     -0.906361     -4.752795
  Cl     -5.170765     -0.488438     -5.818189
  C      -2.562943     -0.441400     -5.033534
  C      -1.511359     -0.773423     -4.177286
  C       0.954927     -1.120035     -2.422990
  C       1.250488      0.259891     -1.830804
  N       2.402261     -0.350739     -1.114015
  S       3.878544      0.441807     -0.991407
  O       4.852414     -0.597516     -0.642535
  O       4.122525      1.330376     -2.138473
  C       3.568587      1.474748      0.436242
  C       3.550011      2.860547      0.296435
  C       3.293845      3.652358      1.418731
  C       3.057914      3.074685      2.674773
  C       2.807471      3.932461      3.888963
  C       3.085559      1.672157      2.782827
  C       3.343073      0.869747      1.675195
  C       2.313809     -1.611003     -1.905861
  C      -0.724765     -2.376580      0.744529
  O      -0.008737     -3.481679      0.440728
  C       0.440642     -4.327529      1.477975
  C      -1.084968     -2.028432      2.046468
  H      -3.829081      0.589416      3.389252
  H      -2.290936      1.496131      3.596820
  H      -2.980500      0.570384      4.968482
  H      -2.690496      0.926299      1.383897
  H      -2.294021      2.342724     -0.406830
  H      -2.923509      1.997943     -2.051558
  H      -3.801334      1.380210     -0.615316
  H      -3.228709     -2.647980     -1.895419
  H      -5.107761     -2.071365     -3.437890
  H      -2.388480      0.174238     -5.917776
  H      -0.484700     -0.443935     -4.358206
  H       0.503276      0.703960     -1.152104
  H       1.567716      1.021557     -2.566727
  H       3.734630      3.299738     -0.685551
  H       3.276399      4.741018      1.314734
  H       2.111043      3.446346      4.589991
  H       3.746491      4.117036      4.440236
  H       2.392170      4.913761      3.613320
  H       2.902583      1.204575      3.754617
  H       3.365729     -0.218239      1.759091
  H       3.094502     -1.683153     -2.686638
  H       2.355535     -2.521211     -1.285408
  H       1.101354     -3.789938      2.180518
  H       1.008255     -5.133805      0.995204
  H      -0.403382     -4.764664      2.040203
  H      -0.827712     -2.638716      2.909431
60
Coordinates from ORCA-job file E -2653.288870258969
  C      -2.480557      0.630621      3.936940
  O      -1.807380     -0.557957      3.588291
  C      -1.581840     -0.835345      2.284081
  C      -1.955386      0.015493      1.236059
  C      -1.659087     -0.361044     -0.083842
  O      -1.940807      0.425089     -1.146383
  C      -2.663702      1.623166     -0.980327
  C      -1.042444     -1.592564     -0.360771
  S      -0.389166     -2.063957     -2.010539
  C      -1.759400     -1.512241     -3.045969
  C      -3.046221     -1.979166     -2.770803
  C      -4.108301     -1.585489     -3.582608
  C      -3.863539     -0.735210     -4.666801
  Cl     -5.195741     -0.233323     -5.680786
  C      -2.571821     -0.285846     -4.952466
  C      -1.511489     -0.684575     -4.136613
  C       0.981780     -1.198781     -2.460180
  C       1.295230      0.176061     -1.861743
  N       2.399613     -0.466127     -1.103700
  S       3.876385      0.296071     -0.876853
  O       4.783941     -0.746978     -0.390292
  O       4.258555      1.124601     -2.031055
  C       3.437767      1.396763      0.464612
  C       3.513951      2.775721      0.284718
  C       3.159209      3.618424      1.341489
  C       2.729956      3.097688      2.570960
  C       2.375988      4.007162      3.720016
  C       2.661726      1.700087      2.719443
  C       3.016784      0.847708      1.678385
  C       2.319516     -1.715417     -1.909018
  C      -0.644996     -2.415542      0.715587
  O       0.013309     -3.547909      0.381687
  C       0.480411     -4.408249      1.399115
  C      -0.924791     -2.049732      2.032085
  H      -3.491745      0.672977      3.493329
  H      -1.916586      1.528471      3.625349
  H      -2.571134      0.629609      5.031461
  H      -2.441800      0.965674      1.436237
  H      -2.095067      2.362661     -0.388205
  H      -2.830635      2.021736     -1.989746
  H      -3.640589      1.445249     -0.497749
  H      -3.227487     -2.632256     -1.913767
  H      -5.122991     -1.935545     -3.385886
  H      -2.401208      0.369396     -5.808548
  H      -0.478898     -0.373522     -4.318979
  H       0.537433      0.640917     -1.209772
  H       1.656331      0.927763     -2.588228
  H       3.848529      3.170262     -0.676440
  H       3.218161      4.702110      1.206114
  H       1.556145      3.590481      4.326006
  H       3.239918      4.142844      4.394355
  H       2.074686      5.006024      3.369726
  H       2.326075      1.275934      3.670232
  H       2.964285     -0.236199      1.795085
  H       3.120320     -1.790937     -2.669476
  H       2.331265     -2.632311     -1.297326
  H       1.195533     -3.895015      2.065544
  H       0.991663     -5.236952      0.892033
  H      -0.351318     -4.810954      2.003765
  H      -0.648340     -2.667621      2.883665
60
Coordinates from ORCA-job file E -2653.289457844276
  C      -2.083287      0.692832      3.982849
  O      -1.478345     -0.523585      3.606715
  C      -1.346649     -0.821133      2.294117
  C      -1.747250      0.036683      1.262146
  C      -1.542376     -0.359415     -0.069388
  O      -1.850619      0.434213     -1.119559
  C      -2.526608      1.654731     -0.922475
  C      -0.987541     -1.615181     -0.371255
  S      -0.393585     -2.098527     -2.041933
  C      -1.756834     -1.473464     -3.037963
  C      -3.048753     -1.923917     -2.760650
  C      -4.114574     -1.469657     -3.534997
  C      -3.867738     -0.577090     -4.583947
  Cl     -5.205138      0.000024     -5.550001
  C      -2.570739     -0.143858     -4.872950
  C      -1.506735     -0.602574     -4.094510
  C       1.002197     -1.271988     -2.493781
  C       1.330601      0.097936     -1.887809
  N       2.380923     -0.574118     -1.084041
  S       3.847505      0.159195     -0.742947
  O       4.674685     -0.884400     -0.132197
  O       4.367524      0.934531     -1.879767
  C       3.289268      1.317525      0.502875
  C       3.465069      2.685339      0.309746
  C       3.017917      3.572335      1.292809
  C       2.396493      3.106477      2.460569
  C       1.944308      4.060786      3.536462
  C       2.227772      1.718697      2.622015
  C       2.674333      0.822511      1.655784
  C       2.316493     -1.811830     -1.904802
  C      -0.565459     -2.447700      0.688466
  O       0.030192     -3.606219      0.326835
  C       0.519280     -4.479348      1.323012
  C      -0.756539     -2.063909      2.015434
  H      -3.114548      0.773973      3.594353
  H      -1.501675      1.565753      3.634560
  H      -2.113762      0.701143      5.080693
  H      -2.179977      1.008345      1.481763
  H      -1.900502      2.382177     -0.374818
  H      -2.744057      2.048232     -1.924289
  H      -3.476531      1.511274     -0.378661
  H      -3.230734     -2.610853     -1.930567
  H      -5.133920     -1.805301     -3.337191
  H      -2.399924      0.545364     -5.701863
  H      -0.468240     -0.310493     -4.277199
  H       0.561387      0.585705     -1.267810
  H       1.739400      0.837050     -2.602479
  H       3.947692      3.036897     -0.604061
  H       3.156449      4.647420      1.147516
  H       1.017657      3.712833      4.019631
  H       2.707782      4.149251      4.329322
  H       1.768829      5.071138      3.137151
  H       1.740284      1.336773      3.523778
  H       2.542248     -0.253339      1.783202
  H       3.140076     -1.888108     -2.640978
  H       2.297826     -2.735850     -1.304264
  H       1.290127     -3.991423      1.944650
  H       0.968454     -5.329960      0.793953
  H      -0.292802     -4.845887      1.975465
  H      -0.457329     -2.688019      2.854779
60
Coordinates from ORCA-job file E -2653.290530718676
  C      -1.868420      0.918721      3.920540
  O      -1.295918     -0.319645      3.564914
  C      -1.220870     -0.666569      2.259236
  C      -1.662297      0.153312      1.213659
  C      -1.507603     -0.289139     -0.110577
  O      -1.855245      0.467931     -1.174648
  C      -2.509344      1.702864     -0.992351
  C      -0.962687     -1.555955     -0.387673
  S      -0.417729     -2.100315     -2.051432
  C      -1.789261     -1.497548     -3.054199
  C      -3.082290     -1.920150     -2.744137
  C      -4.149695     -1.492182     -3.531926
  C      -3.901659     -0.652716     -4.623450
  Cl     -5.240363     -0.108210     -5.606592
  C      -2.602776     -0.245511     -4.941762
  C      -1.537745     -0.678631     -4.151009
  C       0.972516     -1.272671     -2.534560
  C       1.295237      0.095089     -1.922618
  N       2.336752     -0.580456     -1.109867
  S       3.800448      0.143959     -0.752359
  O       4.632165     -0.922686     -0.190085
  O       4.308626      0.968970     -1.857886
  C       3.228193      1.240570      0.544977
  C       3.346018      2.620809      0.397759
  C       2.871903      3.454146      1.415230
  C       2.279666      2.923393      2.570741
  C       1.789173      3.822195      3.677786
  C       2.173497      1.524961      2.687383
  C       2.648992      0.681435      1.687581
  C       2.276875     -1.819533     -1.932115
  C      -0.505974     -2.353325      0.685481
  O       0.084357     -3.519866      0.342322
  C       0.629615     -4.347327      1.348610
  C      -0.645333     -1.921021      2.003744
  H      -2.916223      0.998275      3.579072
  H      -1.294136      1.769293      3.509938
  H      -1.845370      0.970179      5.017409
  H      -2.085798      1.133012      1.414634
  H      -1.858387      2.436184     -0.482822
  H      -2.750070      2.071717     -1.998123
  H      -3.444959      1.587821     -0.417800
  H      -3.263076     -2.566229     -1.881467
  H      -5.171070     -1.806174     -3.310803
  H      -2.432708      0.404029     -5.802238
  H      -0.497121     -0.403184     -4.350104
  H       0.522869      0.578212     -1.304330
  H       1.706914      0.840522     -2.628977
  H       3.801191      3.023326     -0.509016
  H       2.960848      4.538718      1.305047
  H       0.889499      3.410578      4.162549
  H       2.556483      3.933541      4.464251
  H       1.551777      4.831319      3.308354
  H       1.707642      1.092168      3.577839
  H       2.560245     -0.402554      1.776763
  H       3.110422     -1.907307     -2.655116
  H       2.241657     -2.739775     -1.326653
  H       1.421921     -3.826282      1.914113
  H       1.065368     -5.213007      0.832839
  H      -0.146308     -4.696722      2.052175
  H      -0.310431     -2.512558      2.853248
60
Coordinates from ORCA-job file E -2653.289251658465
  C      -1.469340      1.021825      3.924305
  O      -0.970658     -0.243682      3.553119
  C      -0.989146     -0.611715      2.250597
  C      -1.464619      0.207070      1.219096
  C      -1.396125     -0.255979     -0.106360
  O      -1.786013      0.496502     -1.158072
  C      -2.416619      1.740098     -0.952378
  C      -0.904257     -1.543730     -0.393063
  S      -0.435692     -2.119850     -2.066222
  C      -1.807938     -1.493999     -3.055759
  C      -3.103912     -1.890131     -2.731201
  C      -4.168523     -1.450270     -3.517465
  C      -3.910806     -0.624576     -4.617693
  Cl     -5.242218     -0.066307     -5.602239
  C      -2.607461     -0.241085     -4.946744
  C      -1.546695     -0.686200     -4.158899
  C       0.949450     -1.283226     -2.559713
  C       1.260464      0.066607     -1.903502
  N       2.276208     -0.641174     -1.086344
  S       3.725173      0.056419     -0.655734
  O       4.490561     -1.022868     -0.029132
  O       4.322496      0.853055     -1.736012
  C       3.071653      1.177868      0.584033
  C       3.313770      2.547253      0.493520
  C       2.786433      3.394384      1.473615
  C       2.019037      2.889285      2.534169
  C       1.467910      3.803136      3.600447
  C       1.792860      1.501305      2.596600
  C       2.320101      0.642231      1.635476
  C       2.232991     -1.857087     -1.944028
  C      -0.422084     -2.344786      0.666610
  O       0.118945     -3.529066      0.306877
  C       0.701325     -4.356762      1.292258
  C      -0.473110     -1.890468      1.983637
  H      -2.530057      1.143907      3.641186
  H      -0.882738      1.842214      3.470644
  H      -1.381229      1.083366      5.017316
  H      -1.844773      1.203151      1.427433
  H      -1.730781      2.471658     -0.487668
  H      -2.710033      2.101408     -1.946687
  H      -3.319312      1.641208     -0.324729
  H      -3.288121     -2.529918     -1.864281
  H      -5.193960     -1.745643     -3.290253
  H      -2.432412      0.398041     -5.813987
  H      -0.501234     -0.431704     -4.364434
  H       0.478980      0.531029     -1.285418
  H       1.684679      0.833416     -2.579488
  H       3.902230      2.930753     -0.342083
  H       2.969530      4.470900      1.407219
  H       0.476887      3.467624      3.947001
  H       2.128939      3.821332      4.485474
  H       1.374928      4.839438      3.242188
  H       1.192229      1.087922      3.413508
  H       2.138221     -0.432770      1.680340
  H       3.082946     -1.934405     -2.648457
  H       2.175406     -2.790775     -1.361651
  H       1.540526     -3.850080      1.800810
  H       1.082329     -5.241017      0.764522
  H      -0.038895     -4.675043      2.046728
  H      -0.108444     -2.480091      2.822469
60
Coordinates from ORCA-job file E -2653.291469730802
  C      -1.848058      0.942945      3.941745
  O      -1.180693     -0.242153      3.568827
  C      -1.142408     -0.602273      2.263809
  C      -1.667519      0.179314      1.228660
  C      -1.550378     -0.275141     -0.096267
  O      -1.979384      0.453747     -1.149628
  C      -2.695062      1.651336     -0.945664
  C      -0.968488     -1.527196     -0.379868
  S      -0.461575     -2.090379     -2.048752
  C      -1.821577     -1.487655     -3.070308
  C      -3.117614     -1.913099     -2.784539
  C      -4.170127     -1.488961     -3.595262
  C      -3.902429     -0.647797     -4.680992
  Cl     -5.220787     -0.103413     -5.690345
  C      -2.598925     -0.238632     -4.974992
  C      -1.549420     -0.670781     -4.164738
  C       0.937701     -1.281477     -2.546435
  C       1.286372      0.076198     -1.926371
  N       2.291107     -0.637399     -1.097344
  S       3.765638      0.032612     -0.695833
  O       4.528266     -1.065378     -0.098336
  O       4.344533      0.822973     -1.790161
  C       3.191058      1.164690      0.572619
  C       3.520240      2.517341      0.505935
  C       3.058671      3.377397      1.507297
  C       2.276983      2.901040      2.570308
  C       1.799412      3.829304      3.659734
  C       1.965112      1.528963      2.610549
  C       2.420013      0.657536      1.623761
  C       2.217568     -1.867392     -1.934618
  C      -0.429314     -2.284884      0.684207
  O       0.200438     -3.425626      0.329509
  C       0.856450     -4.195085      1.315935
  C      -0.520142     -1.832435      2.000222
  H      -2.916881      0.915882      3.664337
  H      -1.384104      1.835421      3.484217
  H      -1.764105      1.017251      5.034263
  H      -2.124355      1.142973      1.434364
  H      -2.066963      2.425021     -0.468575
  H      -2.999618      1.998275     -1.941779
  H      -3.596649      1.487493     -0.330039
  H      -3.312108     -2.560181     -1.925423
  H      -5.194741     -1.806379     -3.395652
  H      -2.413888      0.408842     -5.833968
  H      -0.505900     -0.403062     -4.355134
  H       0.521146      0.582780     -1.320667
  H       1.731884      0.808710     -2.625629
  H       4.122012      2.879199     -0.329813
  H       3.307915      4.441576      1.457834
  H       0.794100      3.552430      4.015667
  H       2.472353      3.790515      4.534879
  H       1.767708      4.875295      3.319294
  H       1.353430      1.137685      3.428969
  H       2.170148     -0.404046      1.650466
  H       3.059167     -1.965142     -2.646047
  H       2.152482     -2.791874     -1.339288
  H       1.658744     -3.619284      1.810057
  H       1.300021     -5.052147      0.792334
  H       0.151606     -4.562575      2.081810
  H      -0.119065     -2.392901      2.842359
60
Coordinates from ORCA-job file E -2653.292186182612
  C      -1.865763      1.130049      3.835434
  O      -1.141731     -0.031610      3.494147
  C      -1.118449     -0.445851      2.203764
  C      -1.686359      0.277729      1.150323
  C      -1.577801     -0.223164     -0.158263
  O      -2.025584      0.460479     -1.233386
  C      -2.750965      1.658665     -1.068669
  C      -0.966117     -1.468266     -0.405103
  S      -0.478832     -2.078778     -2.057240
  C      -1.864214     -1.524152     -3.075424
  C      -3.148730     -1.963491     -2.760123
  C      -4.218936     -1.578784     -3.568001
  C      -3.980128     -0.763684     -4.679223
  Cl     -5.322470     -0.269017     -5.683444
  C      -2.686912     -0.340916     -5.002541
  C      -1.619893     -0.733124     -4.194848
  C       0.907598     -1.257340     -2.589733
  C       1.263552      0.083676     -1.936213
  N       2.269570     -0.651807     -1.128507
  S       3.743734      0.007645     -0.698456
  O       4.514049     -1.112104     -0.150836
  O       4.320286      0.842238     -1.761285
  C       3.174053      1.085054      0.619383
  C       3.529979      2.432777      0.625570
  C       3.090343      3.245457      1.674909
  C       2.303828      2.727186      2.714865
  C       1.849262      3.604109      3.855321
  C       1.963346      1.362354      2.680928
  C       2.396136      0.537995      1.645287
  C       2.202617     -1.848938     -2.011702
  C      -0.375943     -2.162315      0.675842
  O       0.288275     -3.292770      0.353138
  C       1.035334     -3.970778      1.342690
  C      -0.455111     -1.660027      1.974687
  H      -2.937589      1.029849      3.587541
  H      -1.465074      2.026419      3.329208
  H      -1.759524      1.255753      4.921296
  H      -2.165140      1.235888      1.328045
  H      -2.128205      2.453168     -0.620218
  H      -3.060997      1.968467     -2.075268
  H      -3.649291      1.507722     -0.444976
  H      -3.321850     -2.588848     -1.880625
  H      -5.235666     -1.905764     -3.344646
  H      -2.525013      0.287857     -5.879837
  H      -0.582989     -0.451346     -4.402981
  H       0.499738      0.577703     -1.316286
  H       1.709939      0.831830     -2.617918
  H       4.133239      2.829955     -0.192905
  H       3.359798      4.305651      1.681744
  H       0.837616      3.332468      4.196946
  H       2.521426      3.499970      4.725435
  H       1.842040      4.667861      3.573396
  H       1.345880      0.937523      3.477299
  H       2.119398     -0.516306      1.613846
  H       3.039971     -1.908122     -2.732487
  H       2.150822     -2.795728     -1.452316
  H       1.832088     -3.327573      1.755456
  H       1.493957     -4.834440      0.843750
  H       0.392645     -4.326518      2.166575
  H      -0.015245     -2.171933      2.828137
60
Coordinates from ORCA-job file E -2653.293017372551
  C      -1.826167      1.116378      3.837647
  O      -1.144418     -0.072562      3.501316
  C      -1.130509     -0.486505      2.209264
  C      -1.676849      0.254659      1.158151
  C      -1.564932     -0.235946     -0.154322
  O      -1.979203      0.470430     -1.228758
  C      -2.674495      1.686486     -1.064708
  C      -0.965477     -1.482032     -0.409948
  S      -0.482617     -2.095565     -2.067205
  C      -1.869463     -1.528343     -3.073030
  C      -3.162257     -1.920786     -2.724528
  C      -4.237102     -1.524352     -3.519909
  C      -3.998495     -0.743575     -4.654652
  Cl     -5.347707     -0.231385     -5.641495
  C      -2.699200     -0.367664     -5.012197
  C      -1.626321     -0.771489     -4.216142
  C       0.916401     -1.307716     -2.620255
  C       1.275354      0.049535     -2.000639
  N       2.247156     -0.667968     -1.137009
  S       3.711848     -0.001606     -0.662730
  O       4.471349     -1.116967     -0.087129
  O       4.320787      0.825848     -1.714780
  C       3.125448      1.088727      0.635832
  C       3.495790      2.432034      0.639959
  C       3.060520      3.251273      1.685345
  C       2.259290      2.744809      2.720502
  C       1.805570      3.627861      3.855628
  C       1.897879      1.386775      2.685260
  C       2.332053      0.555425      1.656601
  C       2.212370     -1.875280     -2.012335
  C      -0.383219     -2.187034      0.669236
  O       0.285706     -3.313951      0.343201
  C       1.095522     -3.953282      1.309830
  C      -0.477429     -1.703121      1.973784
  H      -2.894229      1.062195      3.560398
  H      -1.375327      2.000423      3.352503
  H      -1.742680      1.226807      4.927160
  H      -2.140410      1.218611      1.341584
  H      -2.042122      2.456874     -0.589099
  H      -2.948621      2.019848     -2.074197
  H      -3.592368      1.551759     -0.466243
  H      -3.337674     -2.514215     -1.823918
  H      -5.258286     -1.812702     -3.265206
  H      -2.536480      0.240409     -5.903665
  H      -0.591968     -0.514442     -4.460215
  H       0.497652      0.579794     -1.427045
  H       1.759954      0.761952     -2.693920
  H       4.103075      2.823355     -0.178353
  H       3.340952      4.308261      1.690885
  H       0.782882      3.376751      4.179521
  H       2.460647      3.505638      4.735973
  H       1.825542      4.692296      3.576963
  H       1.256964      0.972743      3.467779
  H       2.031609     -0.490720      1.620038
  H       3.063106     -1.916564     -2.718832
  H       2.168002     -2.819510     -1.449789
  H       1.890543     -3.279396      1.673185
  H       1.557537     -4.811561      0.805290
  H       0.500937     -4.314449      2.166950
  H      -0.046424     -2.227267      2.823971
60
Coordinates from ORCA-job file E -2653.293127575603
  C      -1.758806      1.093165      3.866172
  O      -1.083095     -0.095085      3.514861
  C      -1.085710     -0.498987      2.219230
  C      -1.659279      0.242038      1.182838
  C      -1.562036     -0.238150     -0.135042
  O      -2.009777      0.469193     -1.195311
  C      -2.715994      1.675501     -1.008612
  C      -0.961954     -1.479813     -0.408340
  S      -0.501648     -2.106606     -2.072625
  C      -1.873127     -1.511352     -3.077335
  C      -3.174923     -1.869827     -2.723682
  C      -4.242760     -1.451215     -3.515952
  C      -3.989888     -0.684233     -4.657247
  Cl     -5.328931     -0.148530     -5.644325
  C      -2.683624     -0.344593     -5.021803
  C      -1.616954     -0.768835     -4.227027
  C       0.917985     -1.374683     -2.654239
  C       1.299838     -0.006518     -2.068462
  N       2.192367     -0.726913     -1.123825
  S       3.648828     -0.101998     -0.567767
  O       4.324917     -1.234554      0.074488
  O       4.354504      0.681683     -1.592742
  C       3.047606      1.039456      0.676513
  C       3.487861      2.361074      0.672854
  C       3.057039      3.220156      1.687080
  C       2.191794      2.774643      2.698398
  C       1.749335      3.696917      3.806206
  C       1.755508      1.438875      2.667929
  C       2.184155      0.568630      1.669489
  C       2.182888     -1.947086     -1.985723
  C      -0.350171     -2.181648      0.656422
  O       0.330572     -3.294346      0.310305
  C       1.253284     -3.864758      1.218143
  C      -0.427131     -1.708795      1.965392
  H      -2.825114      1.049855      3.581811
  H      -1.298674      1.981528      3.397355
  H      -1.680248      1.185658      4.957695
  H      -2.131999      1.198916      1.380570
  H      -2.085943      2.448859     -0.534702
  H      -3.007980      2.015868     -2.010762
  H      -3.623374      1.524418     -0.398189
  H      -3.361296     -2.454136     -1.819319
  H      -5.269256     -1.714396     -3.255386
  H      -2.508733      0.251377     -5.919182
  H      -0.582221     -0.533154     -4.485077
  H       0.515773      0.587051     -1.571131
  H       1.860335      0.644120     -2.765087
  H       4.146689      2.705584     -0.126543
  H       3.396219      4.259863      1.689526
  H       0.698112      3.519490      4.083960
  H       2.352578      3.536292      4.716874
  H       1.855818      4.755027      3.523622
  H       1.061783      1.071185      3.427793
  H       1.825072     -0.458444      1.635357
  H       3.057545     -1.988484     -2.661822
  H       2.114755     -2.888423     -1.422272
  H       2.035540     -3.137772      1.497255
  H       1.720759     -4.706794      0.691625
  H       0.755524     -4.241623      2.128056
  H       0.025659     -2.234671      2.803210
60
Coordinates from ORCA-job file E -2653.293604606080
  C      -1.776267      1.053167      3.869915
  O      -1.146012     -0.160610      3.522563
  C      -1.121015     -0.541561      2.221396
  C      -1.660101      0.224897      1.184077
  C      -1.543295     -0.238548     -0.137479
  O      -1.973190      0.480711     -1.197347
  C      -2.663028      1.695840     -1.011713
  C      -0.956654     -1.483124     -0.416600
  S      -0.476708     -2.085949     -2.085312
  C      -1.861153     -1.502953     -3.075157
  C      -3.155498     -1.881756     -2.713250
  C      -4.235991     -1.468051     -3.489225
  C      -4.003535     -0.690792     -4.628971
  Cl     -5.357412     -0.170041     -5.602764
  C      -2.706010     -0.334473     -5.003800
  C      -1.626046     -0.748893     -4.221016
  C       0.935142     -1.335631     -2.675427
  C       1.322732      0.015847     -2.051207
  N       2.201662     -0.733216     -1.116364
  S       3.650898     -0.125234     -0.516400
  O       4.290006     -1.263574      0.154276
  O       4.402902      0.646619     -1.518825
  C       3.050066      1.033815      0.705734
  C       3.454233      2.364689      0.642845
  C       3.021020      3.250361      1.632047
  C       2.190318      2.820163      2.677704
  C       1.759906      3.765819      3.769717
  C       1.785813      1.474018      2.704112
  C       2.214098      0.579867      1.727270
  C       2.206957     -1.917484     -2.026372
  C      -0.382288     -2.213304      0.648433
  O       0.267030     -3.344185      0.302265
  C       1.206953     -3.915156      1.192737
  C      -0.482847     -1.762377      1.963318
  H      -2.829981      1.070263      3.540819
  H      -1.250343      1.924377      3.438317
  H      -1.739976      1.121639      4.965352
  H      -2.125300      1.184794      1.386146
  H      -2.027088      2.456637     -0.525428
  H      -2.938075      2.046546     -2.015108
  H      -3.580254      1.554167     -0.413738
  H      -3.326285     -2.478510     -1.813915
  H      -5.256126     -1.747735     -3.220862
  H      -2.546336      0.264920     -5.901914
  H      -0.597528     -0.494438     -4.486716
  H       0.537740      0.610602     -1.557868
  H       1.902378      0.667049     -2.731619
  H       4.093360      2.693963     -0.178843
  H       3.339172      4.295996      1.592382
  H       0.720175      3.576174      4.080384
  H       2.389996      3.641096      4.667654
  H       1.839133      4.817066      3.454653
  H       1.125372      1.113775      3.495879
  H       1.883815     -0.457550      1.742043
  H       3.077101     -1.908830     -2.709288
  H       2.155933     -2.886802     -1.511251
  H       1.999896     -3.190080      1.445161
  H       1.656016     -4.763959      0.660858
  H       0.728714     -4.285097      2.115560
  H      -0.064190     -2.314962      2.801662
60
Coordinates from ORCA-job file E -2653.293904242787
  C      -1.844220      1.119087      3.829082
  O      -1.167475     -0.072672      3.492745
  C      -1.141182     -0.475227      2.198432
  C      -1.703136      0.261609      1.151071
  C      -1.585884     -0.222492     -0.162423
  O      -2.026549      0.473850     -1.232778
  C      -2.728796      1.684232     -1.065348
  C      -0.972784     -1.458703     -0.423377
  S      -0.486417     -2.065750     -2.084023
  C      -1.878146     -1.505020     -3.077445
  C      -3.164685     -1.914651     -2.720640
  C      -4.252134     -1.518932     -3.496279
  C      -4.033529     -0.728396     -4.630205
  Cl     -5.396779     -0.226321     -5.600991
  C      -2.743148     -0.342738     -5.000100
  C      -1.656549     -0.740124     -4.218055
  C       0.922377     -1.297622     -2.677929
  C       1.323113      0.027369     -2.004400
  N       2.210667     -0.758990     -1.107603
  S       3.671057     -0.174421     -0.508724
  O       4.306688     -1.327738      0.140724
  O       4.420772      0.609938     -1.503183
  C       3.085738      0.968156      0.733840
  C       3.489281      2.300130      0.678250
  C       3.058351      3.180067      1.673518
  C       2.232433      2.742656      2.719623
  C       1.800830      3.683620      3.815159
  C       1.835265      1.393805      2.742974
  C       2.259995      0.505384      1.759260
  C       2.193469     -1.910200     -2.056942
  C      -0.372772     -2.156606      0.648468
  O       0.306438     -3.274665      0.317057
  C       1.301336     -3.772290      1.193163
  C      -0.470989     -1.682300      1.955535
  H      -2.907030      1.080548      3.532427
  H      -1.371724      2.001356      3.360229
  H      -1.780189      1.217199      4.920986
  H      -2.184330      1.216541      1.338394
  H      -2.099062      2.460036     -0.594686
  H      -3.012467      2.014127     -2.073405
  H      -3.642251      1.542688     -0.461505
  H      -3.324275     -2.522644     -1.826707
  H      -5.266682     -1.822194     -3.232390
  H      -2.594012      0.263083     -5.895697
  H      -0.629361     -0.469295     -4.475821
  H       0.548723      0.610740     -1.481975
  H       1.899357      0.696013     -2.670908
  H       4.127871      2.632979     -0.142054
  H       3.372651      4.226949      1.636546
  H       0.762331      3.489640      4.127840
  H       2.434116      3.558371      4.710892
  H       1.876286      4.735846      3.502405
  H       1.185373      1.026693      3.540324
  H       1.939451     -0.535486      1.776115
  H       3.054438     -1.886065     -2.751251
  H       2.139219     -2.897810     -1.576665
  H       2.072875     -3.006676      1.384410
  H       1.763828     -4.624640      0.678532
  H       0.872725     -4.122863      2.147569
  H      -0.030500     -2.209183      2.799438
60
Coordinates from ORCA-job file E -2653.294019144203
  C      -1.843316      1.023317      3.876834
  O      -1.147429     -0.149948      3.516028
  C      -1.130118     -0.536267      2.217034
  C      -1.704446      0.210832      1.183269
  C      -1.600091     -0.257619     -0.137023
  O      -2.049100      0.454380     -1.193771
  C      -2.751291      1.660938     -1.002378
  C      -0.984658     -1.489248     -0.416964
  S      -0.500683     -2.073385     -2.087118
  C      -1.871444     -1.473213     -3.084673
  C      -3.167867     -1.868938     -2.746484
  C      -4.242122     -1.446224     -3.525866
  C      -4.001127     -0.639661     -4.644503
  Cl     -5.347397     -0.096957     -5.617094
  C      -2.701965     -0.267809     -4.996014
  C      -1.628073     -0.694709     -4.211656
  C       0.928137     -1.316677     -2.660928
  C       1.334047     -0.002242     -1.967769
  N       2.193723     -0.806426     -1.058117
  S       3.652590     -0.243666     -0.435209
  O       4.237910     -1.392674      0.268642
  O       4.450306      0.488505     -1.432160
  C       3.063095      0.955025      0.750625
  C       3.481359      2.279640      0.641491
  C       3.051117      3.206210      1.593859
  C       2.211194      2.822785      2.649693
  C       1.777009      3.816593      3.696456
  C       1.802111      1.479271      2.729233
  C       2.226872      0.543856      1.789929
  C       2.173067     -1.953826     -2.011929
  C      -0.371357     -2.197440      0.639781
  O       0.305059     -3.312539      0.288289
  C       1.348783     -3.786546      1.121595
  C      -0.454540     -1.736417      1.952696
  H      -2.913669      0.960874      3.612351
  H      -1.406706      1.917658      3.396980
  H      -1.749797      1.119535      4.966792
  H      -2.184921      1.163226      1.385011
  H      -2.118030      2.431641     -0.527886
  H      -3.046818      2.004230     -2.002555
  H      -3.658255      1.510048     -0.390980
  H      -3.343949     -2.489091     -1.864117
  H      -5.263485     -1.738333     -3.276126
  H      -2.535268      0.349482     -5.880563
  H      -0.593944     -0.440854     -4.457932
  H       0.561667      0.592843     -1.456336
  H       1.932200      0.657930     -2.623804
  H       4.134110      2.567394     -0.184379
  H       3.375032      4.247670      1.513475
  H       0.731431      3.651427      4.001826
  H       2.395689      3.721435      4.606100
  H       1.873318      4.852914      3.339651
  H       1.144421      1.153612      3.538514
  H       1.902165     -0.493631      1.854230
  H       3.046190     -1.941809     -2.691931
  H       2.095642     -2.942937     -1.537376
  H       2.123922     -3.013177      1.256399
  H       1.790268     -4.645384      0.599348
  H       0.973453     -4.123900      2.102942
  H      -0.004022     -2.271724      2.786068
60
Coordinates from ORCA-job file E -2653.294102117889
  C      -1.853456      1.017212      3.885030
  O      -1.151488     -0.151332      3.520850
  C      -1.126713     -0.529730      2.219638
  C      -1.702985      0.219859      1.188698
  C      -1.593411     -0.239805     -0.134214
  O      -2.047634      0.475150     -1.186561
  C      -2.756926      1.676513     -0.987833
  C      -0.972010     -1.468254     -0.418907
  S      -0.495045     -2.052170     -2.088882
  C      -1.872859     -1.459133     -3.083536
  C      -3.164360     -1.873778     -2.748265
  C      -4.243892     -1.462252     -3.526508
  C      -4.012887     -0.647509     -4.641180
  Cl     -5.365694     -0.118487     -5.612661
  C      -2.718388     -0.256669     -4.990200
  C      -1.639237     -0.672724     -4.207133
  C       0.934077     -1.295575     -2.669811
  C       1.357102      0.000667     -1.951939
  N       2.193527     -0.835035     -1.048382
  S       3.648769     -0.303908     -0.390850
  O       4.185225     -1.464604      0.333690
  O       4.490481      0.400005     -1.371591
  C       3.056313      0.916691      0.771780
  C       3.479539      2.238382      0.643568
  C       3.045386      3.181742      1.577595
  C       2.197173      2.818440      2.634101
  C       1.759088      3.831117      3.660950
  C       1.783777      1.477741      2.733176
  C       2.212025      0.525522      1.812591
  C       2.174827     -1.955608     -2.034394
  C      -0.358269     -2.179894      0.635566
  O       0.313803     -3.297375      0.282468
  C       1.390651     -3.747288      1.089649
  C      -0.447094     -1.726074      1.950526
  H      -2.923095      0.950921      3.617655
  H      -1.420342      1.915758      3.410334
  H      -1.763056      1.109003      4.975675
  H      -2.190835      1.167444      1.395072
  H      -2.128506      2.447555     -0.507603
  H      -3.053454      2.024509     -1.986093
  H      -3.663677      1.516971     -0.378305
  H      -3.332854     -2.500122     -1.868788
  H      -5.261534     -1.768635     -3.278728
  H      -2.559637      0.367124     -5.871616
  H      -0.608261     -0.406151     -4.452373
  H       0.592259      0.601683     -1.436996
  H       1.971653      0.660076     -2.593571
  H       4.139655      2.509406     -0.181987
  H       3.372836      4.220780      1.482052
  H       0.708481      3.679953      3.955819
  H       2.365905      3.743601      4.579281
  H       1.869398      4.861170      3.290394
  H       1.118848      1.167524      3.542592
  H       1.884467     -0.509439      1.893431
  H       3.050783     -1.924830     -2.710511
  H       2.094029     -2.958335     -1.591319
  H       2.167412     -2.968823      1.175669
  H       1.816290     -4.616635      0.571651
  H       1.053209     -4.065677      2.090714
  H       0.000615     -2.266668      2.782024
60
Coordinates from ORCA-job file E -2653.294174186397
  C      -1.842056      1.019568      3.892531
  O      -1.147374     -0.152935      3.527517
  C      -1.120340     -0.527940      2.224885
  C      -1.689322      0.227692      1.194511
  C      -1.574965     -0.226357     -0.129992
  O      -2.023464      0.493510     -1.181308
  C      -2.734891      1.693505     -0.979841
  C      -0.956824     -1.456745     -0.417022
  S      -0.484696     -2.040932     -2.085906
  C      -1.867341     -1.452958     -3.078501
  C      -3.156318     -1.872163     -2.740764
  C      -4.238346     -1.467152     -3.519579
  C      -4.012053     -0.653789     -4.635543
  Cl     -5.368310     -0.135078     -5.608160
  C      -2.719321     -0.256670     -4.986339
  C      -1.638138     -0.666423     -4.203339
  C       0.938761     -1.278579     -2.668108
  C       1.364229      0.014502     -1.948125
  N       2.210084     -0.825715     -1.057791
  S       3.669392     -0.293403     -0.412729
  O       4.212914     -1.455977      0.303261
  O       4.501391      0.409863     -1.401210
  C       3.073306      0.921392      0.757109
  C       3.476636      2.249793      0.631083
  C       3.024110      3.185604      1.564423
  C       2.178363      2.808764      2.618639
  C       1.718339      3.814928      3.642605
  C       1.787431      1.461569      2.716554
  C       2.232869      0.516912      1.796491
  C       2.187585     -1.940168     -2.051516
  C      -0.355493     -2.178063      0.638938
  O       0.306589     -3.301904      0.288741
  C       1.347574     -3.785970      1.124751
  C      -0.450210     -1.728381      1.954982
  H      -2.910592      0.961768      3.618241
  H      -1.400512      1.917889      3.425073
  H      -1.757229      1.105797      4.984110
  H      -2.175526      1.175481      1.403333
  H      -2.109104      2.462615     -0.493235
  H      -3.027153      2.045966     -1.977788
  H      -3.643946      1.530680     -0.374673
  H      -3.321339     -2.496693     -1.859339
  H      -5.254430     -1.777781     -3.270910
  H      -2.564400      0.368310     -5.867583
  H      -0.608700     -0.394896     -4.449240
  H       0.602722      0.605815     -1.417556
  H       1.967321      0.684884     -2.588985
  H       4.132312      2.532320     -0.194302
  H       3.334439      4.230022      1.469939
  H       0.668598      3.647204      3.931666
  H       2.321450      3.738788      4.564358
  H       1.813405      4.846293      3.271356
  H       1.123679      1.141116      3.523055
  H       1.920267     -0.522946      1.874516
  H       3.059806     -1.906493     -2.732144
  H       2.110780     -2.944584     -1.611840
  H       2.141078     -3.029003      1.243638
  H       1.767179     -4.660826      0.610880
  H       0.970767     -4.106754      2.110731
  H      -0.010983     -2.275278      2.786953
60
Coordinates from ORCA-job file E -2653.294191091516
  C      -1.846032      1.009018      3.895242
  O      -1.149199     -0.161556      3.528518
  C      -1.126782     -0.538158      2.226034
  C      -1.704114      0.213703      1.197563
  C      -1.589174     -0.238757     -0.127420
  O      -2.038994      0.480463     -1.178445
  C      -2.755944      1.677083     -0.976774
  C      -0.965649     -1.465860     -0.416317
  S      -0.492544     -2.044401     -2.085577
  C      -1.869315     -1.446643     -3.078643
  C      -3.161609     -1.855721     -2.741877
  C      -4.239810     -1.440925     -3.520772
  C      -4.006505     -0.628842     -4.636114
  Cl     -5.358058     -0.100226     -5.609768
  C      -2.710487     -0.242001     -4.986100
  C      -1.633219     -0.660711     -4.202604
  C       0.934527     -1.283461     -2.663368
  C       1.359832      0.003018     -1.931157
  N       2.198900     -0.845611     -1.042094
  S       3.660244     -0.323587     -0.390395
  O       4.189273     -1.487254      0.334867
  O       4.505339      0.363453     -1.379018
  C       3.072584      0.904447      0.769343
  C       3.484396      2.229100      0.632766
  C       3.032372      3.176335      1.554590
  C       2.179101      2.814423      2.608008
  C       1.718303      3.833059      3.619183
  C       1.780858      1.470339      2.717321
  C       2.224976      0.514751      1.808103
  C       2.179854     -1.951123     -2.045890
  C      -0.352739     -2.180908      0.636916
  O       0.327002     -3.292178      0.282858
  C       1.392680     -3.747840      1.104179
  C      -0.446960     -1.732018      1.953336
  H      -2.914192      0.949106      3.620294
  H      -1.406310      1.909546      3.429689
  H      -1.761584      1.093612      4.986951
  H      -2.195273      1.158574      1.408058
  H      -2.133940      2.448712     -0.489314
  H      -3.049117      2.028918     -1.974683
  H      -3.664603      1.509720     -0.372249
  H      -3.332106     -2.479498     -1.860951
  H      -5.258396     -1.744069     -3.273134
  H      -2.549878      0.382445     -5.866746
  H      -0.601660     -0.395744     -4.446993
  H       0.597469      0.593934     -1.400508
  H       1.968697      0.674409     -2.565318
  H       4.145269      2.500317     -0.192491
  H       3.349511      4.217971      1.451993
  H       0.663856      3.677754      3.898153
  H       2.310808      3.758563      4.547887
  H       1.826936      4.860361      3.240514
  H       1.113017      1.160645      3.524454
  H       1.906154     -0.522647      1.894512
  H       3.055223     -1.910513     -2.721852
  H       2.100316     -2.959597     -1.615946
  H       2.171749     -2.973041      1.202412
  H       1.821393     -4.617644      0.589065
  H       1.039888     -4.069813      2.098407
  H       0.003667     -2.273431      2.782799
60
Coordinates from ORCA-job file E -2653.294212342350
  C      -1.845046      1.001611      3.900995
  O      -1.143346     -0.165538      3.532684
  C      -1.121246     -0.541124      2.229791
  C      -1.698444      0.212014      1.202229
  C      -1.587506     -0.241395     -0.122637
  O      -2.035286      0.480026     -1.173008
  C      -2.746802      1.679612     -0.970340
  C      -0.967986     -1.469789     -0.412758
  S      -0.496768     -2.049831     -2.082341
  C      -1.869212     -1.446162     -3.076589
  C      -3.163540     -1.853371     -2.744908
  C      -4.238603     -1.433644     -3.525417
  C      -4.000254     -0.619406     -4.638140
  Cl     -5.347874     -0.084646     -5.613924
  C      -2.702302     -0.234874     -4.983286
  C      -1.628161     -0.658326     -4.197984
  C       0.932530     -1.292389     -2.660278
  C       1.355267     -0.003448     -1.930675
  N       2.194182     -0.847450     -1.037067
  S       3.657467     -0.321556     -0.391542
  O       4.192264     -1.481823      0.335113
  O       4.497288      0.365169     -1.385080
  C       3.070878      0.907762      0.766897
  C       3.477647      2.233214      0.625286
  C       3.024372      3.181528      1.545337
  C       2.173244      2.820036      2.600602
  C       1.709466      3.839969      3.608982
  C       1.779641      1.474909      2.714597
  C       2.226085      0.518153      1.807790
  C       2.176380     -1.956969     -2.036794
  C      -0.352357     -2.184862      0.639046
  O       0.323714     -3.297777      0.282786
  C       1.391785     -3.756658      1.098765
  C      -0.442628     -1.735443      1.955723
  H      -2.912801      0.938030      3.625666
  H      -1.408679      1.904606      3.436801
  H      -1.761150      1.085079      4.992848
  H      -2.186768      1.158268      1.413449
  H      -2.120400      2.448999     -0.484807
  H      -3.040809      2.032160     -1.967750
  H      -3.654607      1.516200     -0.363487
  H      -3.337825     -2.479443     -1.866359
  H      -5.258586     -1.734992     -3.281311
  H      -2.537425      0.390841     -5.862209
  H      -0.595408     -0.394974     -4.439255
  H       0.591713      0.588954     -1.403393
  H       1.965326      0.665978     -2.566003
  H       4.136735      2.504255     -0.201449
  H       3.338316      4.223791      1.439644
  H       0.654115      3.684695      3.884891
  H       2.298943      3.767110      4.539732
  H       1.818689      4.866752      3.229068
  H       1.114983      1.164982      3.524208
  H       1.911647     -0.520344      1.897933
  H       3.053255     -1.918501     -2.710841
  H       2.095868     -2.963629     -1.602276
  H       2.172957     -2.983641      1.192719
  H       1.815577     -4.627310      0.581134
  H       1.042549     -4.077957      2.094483
  H       0.008934     -2.277429      2.784214
60
Coordinates from ORCA-job file E -2653.294229906416
  C      -1.844424      1.000958      3.903051
  O      -1.139898     -0.164464      3.534719
  C      -1.118358     -0.540659      2.231938
  C      -1.694023      0.213275      1.204077
  C      -1.584092     -0.241235     -0.120410
  O      -2.028637      0.481480     -1.171449
  C      -2.737255      1.682942     -0.969888
  C      -0.967616     -1.470953     -0.410245
  S      -0.498070     -2.053841     -2.079278
  C      -1.868807     -1.447398     -3.073905
  C      -3.164475     -1.851715     -2.743752
  C      -4.237773     -1.428672     -3.524910
  C      -3.996441     -0.614238     -4.636882
  Cl     -5.341957     -0.075209     -5.613279
  C      -2.697252     -0.232419     -4.980285
  C      -1.624899     -0.659133     -4.194282
  C       0.931075     -1.297429     -2.659152
  C       1.352104     -0.006402     -1.932383
  N       2.191717     -0.847212     -1.036191
  S       3.657154     -0.317143     -0.398239
  O       4.199443     -1.475385      0.325949
  O       4.489036      0.372045     -1.396876
  C       3.071679      0.909994      0.762856
  C       3.470160      2.237488      0.618654
  C       3.014404      3.183821      1.539610
  C       2.168022      2.818417      2.597301
  C       1.699709      3.836365      3.605561
  C       1.782745      1.471018      2.713855
  C       2.232577      0.516141      1.806740
  C       2.176049     -1.958367     -2.034839
  C      -0.352028     -2.186186      0.641827
  O       0.322344     -3.299989      0.285636
  C       1.387486     -3.762899      1.102854
  C      -0.440768     -1.735724      1.958252
  H      -2.911438      0.936081      3.625361
  H      -1.408564      1.905286      3.440919
  H      -1.762811      1.083380      4.995164
  H      -2.179528      1.161064      1.414853
  H      -2.109174      2.450899     -0.484181
  H      -3.029469      2.035824     -1.967702
  H      -3.645874      1.522081     -0.363612
  H      -3.341080     -2.478065     -1.865860
  H      -5.258750     -1.727407     -3.281726
  H      -2.529842      0.393412     -5.858641
  H      -0.591307     -0.397408     -4.434037
  H       0.587852      0.586889     -1.407225
  H       1.962644      0.661806     -2.568651
  H       4.125334      2.511922     -0.210036
  H       3.322187      4.227763      1.432524
  H       0.643366      3.679513      3.876970
  H       2.285248      3.762910      4.538716
  H       1.808934      4.863844      3.227548
  H       1.121980      1.157815      3.525436
  H       1.925161     -0.524306      1.898706
  H       3.053099     -1.918491     -2.708490
  H       2.097047     -2.964488     -1.598757
  H       2.169643     -2.991250      1.199570
  H       1.810437     -4.633331      0.584211
  H       1.035059     -4.085302      2.097111
  H       0.010914     -2.277714      2.786699
60
Coordinates from ORCA-job file E -2653.294239151392
  C      -1.845380      1.000478      3.903909
  O      -1.137928     -0.163127      3.535410
  C      -1.116196     -0.539518      2.232708
  C      -1.690909      0.214699      1.204489
  C      -1.580915     -0.240378     -0.119790
  O      -2.023931      0.482858     -1.171311
  C      -2.732429      1.684494     -0.970432
  C      -0.965776     -1.470725     -0.409183
  S      -0.498095     -2.056420     -2.077748
  C      -1.868485     -1.448513     -3.072485
  C      -3.164923     -1.850634     -2.742654
  C      -4.237305     -1.425247     -3.523795
  C      -3.994316     -0.610568     -4.635333
  Cl     -5.338719     -0.068291     -5.611505
  C      -2.694412     -0.231057     -4.978405
  C      -1.623000     -0.660138     -4.192408
  C       0.930664     -1.299867     -2.659707
  C       1.350830     -0.008325     -1.933530
  N       2.189151     -0.848591     -1.035012
  S       3.655897     -0.315626     -0.401810
  O       4.202489     -1.472719      0.320821
  O       4.482485      0.374998     -1.404017
  C       3.071252      0.910472      0.760738
  C       3.463619      2.239399      0.613707
  C       3.006812      3.184843      1.535226
  C       2.165480      2.817067      2.596002
  C       1.694933      3.834048      3.604230
  C       1.786587      1.468016      2.715709
  C       2.237635      0.514032      1.808235
  C       2.176027     -1.959099     -2.035236
  C      -0.350981     -2.186227      0.643412
  O       0.321864     -3.301107      0.287919
  C       1.385621     -3.765417      1.106072
  C      -0.439344     -1.735258      1.959583
  H      -2.911608      0.934440      3.623520
  H      -1.409835      1.906161      3.444223
  H      -1.766453      1.081484      4.996322
  H      -2.174927      1.163330      1.414755
  H      -2.104594      2.452247     -0.484084
  H      -3.023553      2.037441     -1.968536
  H      -3.641675      1.523873     -0.365035
  H      -3.342828     -2.477018     -1.865039
  H      -5.258908     -1.721911     -3.280718
  H      -2.525648      0.394857     -5.856454
  H      -0.588707     -0.400153     -4.431337
  H       0.586153      0.586465     -1.410909
  H       1.963461      0.658287     -2.569431
  H       4.114827      2.515938     -0.217360
  H       3.309626      4.230021      1.426063
  H       0.636490      3.679829      3.869087
  H       2.274465      3.756488      4.540757
  H       1.809222      4.862134      3.229438
  H       1.129189      1.153012      3.529389
  H       1.935617     -0.527762      1.902572
  H       3.053297     -1.916261     -2.708378
  H       2.098390     -2.965868     -1.600552
  H       2.168313     -2.994385      1.203472
  H       1.808100     -4.636235      0.587717
  H       1.031699     -4.087339      2.099986
  H       0.011585     -2.277630      2.788226
60
Coordinates from ORCA-job file E -2653.294243460608
  C      -1.842874      1.007115      3.900911
  O      -1.136270     -0.157426      3.533687
  C      -1.115267     -0.535511      2.231505
  C      -1.689410      0.217873      1.202403
  C      -1.579355     -0.238744     -0.121411
  O      -2.022062      0.483605     -1.173808
  C      -2.731028      1.685195     -0.974220
  C      -0.964802     -1.469654     -0.409329
  S      -0.498258     -2.058989     -2.077114
  C      -1.869021     -1.451328     -3.072360
  C      -3.165858     -1.850948     -2.741260
  C      -4.237900     -1.424998     -3.522563
  C      -3.994122     -0.612183     -4.635365
  Cl     -5.338121     -0.068920     -5.611553
  C      -2.693816     -0.235304     -4.979703
  C      -1.622775     -0.664959     -4.193548
  C       0.930118     -1.302504     -2.661322
  C       1.349314     -0.009612     -1.937381
  N       2.186444     -0.848106     -1.035295
  S       3.654265     -0.310845     -0.407319
  O       4.207729     -1.467207      0.311034
  O       4.473342      0.384558     -1.412496
  C       3.070317      0.911395      0.759719
  C       3.456762      2.242023      0.612628
  C       3.000488      3.184573      1.537551
  C       2.165615      2.812170      2.601665
  C       1.694743      3.825869      3.613095
  C       1.792569      1.461403      2.721516
  C       2.243150      0.510332      1.810803
  C       2.175495     -1.959624     -2.035231
  C      -0.351119     -2.184568      0.644334
  O       0.321366     -3.300175      0.290172
  C       1.384561     -3.763724      1.109352
  C      -0.439405     -1.732248      1.959935
  H      -2.908600      0.942721      3.618252
  H      -1.404950      1.912147      3.442216
  H      -1.766100      1.087922      4.993489
  H      -2.172510      1.167233      1.411434
  H      -2.103760      2.453495     -0.488040
  H      -3.021664      2.037292     -1.972764
  H      -3.640628      1.524759     -0.369288
  H      -3.344400     -2.475712     -1.862611
  H      -5.259891     -1.719523     -3.278540
  H      -2.524496      0.389245     -5.858628
  H      -0.587960     -0.406963     -4.432573
  H       0.584060      0.587316     -1.418268
  H       1.963997      0.654509     -2.573778
  H       4.102741      2.522439     -0.221198
  H       3.298547      4.231113      1.428353
  H       0.633942      3.675610      3.870996
  H       2.268143      3.739865      4.552609
  H       1.816194      4.855489      3.244928
  H       1.139452      1.143022      3.537369
  H       1.945558     -0.532744      1.904985
  H       3.052976     -1.915577     -2.707960
  H       2.098894     -2.966280     -1.600258
  H       2.166685     -2.992154      1.207530
  H       1.808119     -4.634452      0.591735
  H       1.030012     -4.085187      2.103195
  H       0.010824     -2.274116      2.789279
60
Coordinates from ORCA-job file E -2653.294251443165
  C      -1.830955      1.021670      3.894265
  O      -1.130757     -0.147503      3.529498
  C      -1.111081     -0.527910      2.228050
  C      -1.683195      0.225066      1.197564
  C      -1.574549     -0.234305     -0.125557
  O      -2.016577      0.486898     -1.179183
  C      -2.723039      1.690286     -0.981427
  C      -0.962569     -1.467032     -0.410976
  S      -0.497948     -2.062160     -2.077524
  C      -1.869858     -1.455527     -3.073284
  C      -3.167142     -1.849444     -2.737488
  C      -4.239359     -1.424131     -3.518914
  C      -3.995194     -0.617467     -4.636157
  Cl     -5.339393     -0.074621     -5.612320
  C      -2.694471     -0.246285     -4.984997
  C      -1.623269     -0.675364     -4.198795
  C       0.930246     -1.306280     -2.665982
  C       1.348164     -0.011308     -1.945743
  N       2.180008     -0.847273     -1.034926
  S       3.648707     -0.304097     -0.412035
  O       4.211631     -1.460088      0.299307
  O       4.457751      0.400060     -1.419296
  C       3.064724      0.911223      0.762331
  C       3.432290      2.246410      0.608711
  C       2.976829      3.184447      1.538843
  C       2.161397      2.802923      2.614467
  C       1.690118      3.811530      3.630833
  C       1.806803      1.447604      2.740783
  C       2.256853      0.501116      1.825216
  C       2.174338     -1.960440     -2.034550
  C      -0.352367     -2.182327      0.644248
  O       0.316117     -3.301420      0.292385
  C       1.381908     -3.762481      1.109490
  C      -0.439772     -1.727828      1.958951
  H      -2.896460      0.963772      3.609413
  H      -1.386241      1.923358      3.435584
  H      -1.756111      1.102948      4.986942
  H      -2.163598      1.176202      1.404654
  H      -2.094454      2.457948     -0.495988
  H      -3.012570      2.041651     -1.980555
  H      -3.633312      1.532652     -0.376746
  H      -3.345996     -2.469112     -1.855297
  H      -5.261850     -1.713971     -3.271421
  H      -2.525090      0.373774     -5.867094
  H      -0.587781     -0.421700     -4.439735
  H       0.581847      0.590845     -1.434719
  H       1.968620      0.646932     -2.582411
  H       4.063296      2.533998     -0.234068
  H       3.260356      4.234474      1.424644
  H       0.625011      3.669623      3.875920
  H       2.251940      3.710109      4.575694
  H       1.825518      4.843400      3.274243
  H       1.167647      1.122573      3.565087
  H       1.973395     -0.545428      1.924239
  H       3.053411     -1.914566     -2.705005
  H       2.098795     -2.967050     -1.599554
  H       2.164860     -2.991070      1.202668
  H       1.803521     -4.635252      0.593715
  H       1.031161     -4.079954      2.105969
  H       0.007700     -2.270099      2.789533
60
Coordinates from ORCA-job file E -2653.294263790973
  C      -1.809487      1.034580      3.890132
  O      -1.119120     -0.140715      3.526570
  C      -1.101480     -0.521859      2.225332
  C      -1.671435      0.232472      1.194625
  C      -1.566168     -0.228241     -0.128356
  O      -2.007958      0.493209     -1.181936
  C      -2.709013      1.699727     -0.983970
  C      -0.958910     -1.463573     -0.412947
  S      -0.497719     -2.061775     -2.079080
  C      -1.870306     -1.454267     -3.074455
  C      -3.167959     -1.842597     -2.733910
  C      -4.240527     -1.417878     -3.515272
  C      -3.996145     -0.617456     -4.636885
  Cl     -5.340662     -0.075424     -5.613160
  C      -2.695025     -0.251918     -4.990327
  C      -1.623506     -0.680419     -4.204320
  C       0.931643     -1.307484     -2.670908
  C       1.350475     -0.013768     -1.949491
  N       2.173147     -0.852120     -1.031365
  S       3.641572     -0.309468     -0.405254
  O       4.203838     -1.466700      0.304709
  O       4.451134      0.397253     -1.410190
  C       3.055364      0.903521      0.770635
  C       3.392588      2.244438      0.598489
  C       2.933942      3.181954      1.527716
  C       2.145619      2.794089      2.620966
  C       1.669480      3.802255      3.635505
  C       1.821616      1.432861      2.766102
  C       2.274837      0.487073      1.851577
  C       2.172707     -1.963080     -2.034633
  C      -0.351771     -2.180914      0.642400
  O       0.310366     -3.304563      0.291709
  C       1.383471     -3.761295      1.102013
  C      -0.436260     -1.725102      1.956689
  H      -2.875901      0.984570      3.607092
  H      -1.358423      1.931752      3.428910
  H      -1.732523      1.117293      4.982569
  H      -2.148435      1.185425      1.401252
  H      -2.076753      2.464906     -0.499390
  H      -2.998045      2.051974     -1.982945
  H      -3.619443      1.546340     -0.378417
  H      -3.346895     -2.457286     -1.848270
  H      -5.263452     -1.703174     -3.264363
  H      -2.525802      0.363535     -5.875668
  H      -0.587442     -0.431383     -4.447668
  H       0.584214      0.593629     -1.444957
  H       1.978710      0.639223     -2.583752
  H       4.003803      2.536403     -0.257252
  H       3.194159      4.236320      1.399111
  H       0.599324      3.669896      3.864177
  H       2.215807      3.689966      4.588067
  H       1.819955      4.834426      3.286184
  H       1.203350      1.103196      3.604405
  H       2.015645     -0.564278      1.965650
  H       3.054683     -1.914526     -2.701060
  H       2.096327     -2.971174     -1.603353
  H       2.168719     -2.990737      1.182300
  H       1.798915     -4.638482      0.588592
  H       1.042374     -4.071539      2.104085
  H       0.008781     -2.269091      2.787489
60
Coordinates from ORCA-job file E -2653.294288443187
  C      -1.755594      1.055622      3.888061
  O      -1.085696     -0.131167      3.524393
  C      -1.073526     -0.511601      2.222953
  C      -1.641828      0.246510      1.193960
  C      -1.546734     -0.215504     -0.129239
  O      -1.989283      0.508040     -1.180994
  C      -2.675300      1.722645     -0.980028
  C      -0.950502     -1.456287     -0.415100
  S      -0.498274     -2.056407     -2.081824
  C      -1.869892     -1.442719     -3.075427
  C      -3.168779     -1.820768     -2.728331
  C      -4.241016     -1.395159     -3.509830
  C      -3.994809     -0.604376     -4.637684
  Cl     -5.338694     -0.061851     -5.614750
  C      -2.692495     -0.248830     -4.997174
  C      -1.621320     -0.678225     -4.211287
  C       0.935502     -1.308569     -2.678254
  C       1.359874     -0.020257     -1.950630
  N       2.162989     -0.868188     -1.023089
  S       3.628625     -0.337417     -0.378422
  O       4.173038     -1.499855      0.337405
  O       4.455438      0.364237     -1.372337
  C       3.035665      0.878104      0.791815
  C       3.297002      2.228466      0.568771
  C       2.823619      3.169937      1.486620
  C       2.096174      2.776462      2.619222
  C       1.600479      3.789580      3.619365
  C       1.849986      1.405368      2.816382
  C       2.317800      0.455926      1.913341
  C       2.168891     -1.972689     -2.034581
  C      -0.345635     -2.178253      0.638099
  O       0.302605     -3.310401      0.287134
  C       1.391638     -3.761105      1.080519
  C      -0.420545     -1.720559      1.952153
  H      -2.825179      1.019752      3.614673
  H      -1.296041      1.944026      3.418562
  H      -1.668250      1.142228      4.979449
  H      -2.112061      1.202532      1.402023
  H      -2.032306      2.480208     -0.497578
  H      -2.964074      2.078670     -1.977758
  H      -3.585174      1.579908     -0.371028
  H      -3.348818     -2.428240     -1.837975
  H      -5.265033     -1.672352     -3.254391
  H      -2.522446      0.359556     -5.887214
  H      -0.584119     -0.437486     -4.458081
  H       0.595896      0.596206     -1.454019
  H       2.002551      0.624571     -2.578634
  H       3.865172      2.523384     -0.315142
  H       3.025543      4.231476      1.318575
  H       0.524620      3.661541      3.824121
  H       2.123969      3.678273      4.584494
  H       1.761180      4.819867      3.269506
  H       1.280764      1.071669      3.687175
  H       2.121947     -0.603826      2.069711
  H       3.057132     -1.921809     -2.692500
  H       2.086952     -2.983870     -1.611717
  H       2.182433     -2.993859      1.132458
  H       1.791341     -4.647626      0.570387
  H       1.071756     -4.057271      2.093723
  H       0.022840     -2.268238      2.781469
60
Coordinates from ORCA-job file E -2653.294320481518
  C      -1.686935      1.068431      3.893130
  O      -1.037463     -0.128242      3.525812
  C      -1.033152     -0.505527      2.223568
  C      -1.600821      0.258844      1.198622
  C      -1.519701     -0.203030     -0.125285
  O      -1.964394      0.524605     -1.173316
  C      -2.628324      1.750360     -0.966634
  C      -0.938715     -1.450329     -0.415691
  S      -0.497644     -2.049192     -2.084926
  C      -1.865385     -1.423290     -3.074928
  C      -3.166484     -1.790463     -2.724056
  C      -4.237096     -1.359323     -3.504692
  C      -3.987204     -0.574163     -4.635568
  Cl     -5.328926     -0.025797     -5.612451
  C      -2.683018     -0.229055     -4.998406
  C      -1.613318     -0.663938     -4.213444
  C       0.942515     -1.312375     -2.683625
  C       1.373915     -0.027989     -1.952309
  N       2.159631     -0.884149     -1.018548
  S       3.617538     -0.370729     -0.344288
  O       4.132401     -1.538993      0.384347
  O       4.473462      0.319910     -1.320589
  C       3.013001      0.852080      0.812513
  C       3.176616      2.205842      0.525352
  C       2.679329      3.153213      1.424062
  C       2.025577      2.762202      2.601590
  C       1.501279      3.782726      3.579371
  C       1.880096      1.387859      2.864301
  C       2.371050      0.432482      1.979929
  C       2.167590     -1.986049     -2.032346
  C      -0.335223     -2.179720      0.633148
  O       0.294022     -3.321652      0.278973
  C       1.386753     -3.783470      1.061780
  C      -0.395031     -1.720801      1.947506
  H      -2.760804      1.044788      3.635271
  H      -1.223595      1.949022      3.413151
  H      -1.583161      1.158872      4.982806
  H      -2.062420      1.218210      1.410660
  H      -1.969343      2.496322     -0.487623
  H      -2.917631      2.112439     -1.962041
  H      -3.536410      1.622448     -0.351669
  H      -3.349010     -2.394113     -1.831647
  H      -5.262649     -1.628126     -3.246487
  H      -2.510467      0.375222     -5.890750
  H      -0.574954     -0.431509     -4.463013
  H       0.612841      0.595959     -1.460578
  H       2.027350      0.610428     -2.575942
  H       3.693742      2.498188     -0.390218
  H       2.806177      4.217377      1.206451
  H       0.430898      3.624300      3.792511
  H       2.031738      3.712560      4.544271
  H       1.625280      4.808643      3.202867
  H       1.371596      1.056679      3.772720
  H       2.257077     -0.630359      2.189139
  H       3.061728     -1.939390     -2.682674
  H       2.076770     -2.997829     -1.612745
  H       2.188004     -3.026615      1.100728
  H       1.768166     -4.677535      0.550617
  H       1.074746     -4.072640      2.079408
  H       0.048392     -2.273620      2.773381
60
Coordinates from ORCA-job file E -2653.294314205411
  C      -1.632146      1.052393      3.905987
  O      -0.988686     -0.144333      3.529822
  C      -0.993515     -0.515327      2.226242
  C      -1.565780      0.255503      1.208438
  C      -1.498901     -0.202670     -0.117221
  O      -1.949242      0.530899     -1.158853
  C      -2.592628      1.765738     -0.942587
  C      -0.929333     -1.453279     -0.416748
  S      -0.496971     -2.042690     -2.091535
  C      -1.857064     -1.398195     -3.077257
  C      -3.161411     -1.760031     -2.731960
  C      -4.227789     -1.316779     -3.511323
  C      -3.970874     -0.524883     -4.636038
  Cl     -5.307058      0.038135     -5.612113
  C      -2.664009     -0.184688     -4.993222
  C      -1.598262     -0.631872     -4.209543
  C       0.950418     -1.315702     -2.684712
  C       1.387178     -0.035583     -1.947277
  N       2.160862     -0.900534     -1.014759
  S       3.604560     -0.409068     -0.300157
  O       4.076293     -1.581237      0.451762
  O       4.502485      0.259621     -1.253471
  C       2.986148      0.832081      0.829524
  C       3.055687      2.177283      0.471241
  C       2.539682      3.137700      1.344469
  C       1.962044      2.768804      2.568203
  C       1.423455      3.806645      3.519780
  C       1.911451      1.403481      2.902510
  C       2.419602      0.434268      2.042358
  C       2.167765     -1.999923     -2.028607
  C      -0.321475     -2.189841      0.624904
  O       0.294688     -3.336085      0.263141
  C       1.371683     -3.824537      1.051989
  C      -0.364243     -1.732830      1.940574
  H      -2.711135      1.026236      3.670175
  H      -1.180696      1.931877      3.413630
  H      -1.506313      1.147204      4.993019
  H      -2.022007      1.215815      1.427778
  H      -1.918222      2.499860     -0.466659
  H      -2.884837      2.135691     -1.934269
  H      -3.497311      1.649565     -0.320260
  H      -3.349022     -2.369524     -1.844642
  H      -5.255369     -1.581654     -3.257197
  H      -2.486005      0.424613     -5.881054
  H      -0.558490     -0.404411     -4.457110
  H       0.627555      0.589980     -1.454766
  H       2.045304      0.602968     -2.566393
  H       3.523022      2.453700     -0.475588
  H       2.595813      4.195406      1.072387
  H       0.377851      3.594424      3.797934
  H       2.005283      3.822602      4.457008
  H       1.461446      4.816145      3.084739
  H       1.465915      1.090482      3.849646
  H       2.383892     -0.621694      2.308171
  H       3.066626     -1.959835     -2.673161
  H       2.067009     -3.011501     -1.610753
  H       2.181620     -3.078683      1.112680
  H       1.746863     -4.715988      0.531638
  H       1.042015     -4.125704      2.060564
  H       0.084581     -2.290036      2.760422
60
Coordinates from ORCA-job file E -2653.294352127016
  C      -1.631011      1.019412      3.915149
  O      -0.969129     -0.164493      3.530882
  C      -0.977902     -0.532133      2.226444
  C      -1.554394      0.240594      1.212429
  C      -1.491625     -0.214982     -0.114232
  O      -1.942597      0.522038     -1.153468
  C      -2.584217      1.756941     -0.932869
  C      -0.924496     -1.464719     -0.419155
  S      -0.494721     -2.047443     -2.098076
  C      -1.851880     -1.393929     -3.079790
  C      -3.157425     -1.755504     -2.738833
  C      -4.222237     -1.299782     -3.513106
  C      -3.962829     -0.495968     -4.628884
  Cl     -5.296939      0.082748     -5.598420
  C      -2.654846     -0.156419     -4.982299
  C      -1.590769     -0.615717     -4.203507
  C       0.953290     -1.319266     -2.686250
  C       1.385505     -0.040096     -1.943466
  N       2.161386     -0.907053     -1.016028
  S       3.594567     -0.415790     -0.281989
  O       4.051566     -1.582516      0.487617
  O       4.510440      0.242049     -1.226194
  C       2.964433      0.836149      0.828763
  C       3.029581      2.176568      0.451478
  C       2.516517      3.148070      1.313495
  C       1.950043      2.795731      2.547447
  C       1.428654      3.848197      3.492747
  C       1.901265      1.435142      2.900157
  C       2.403288      0.454013      2.049075
  C       2.172224     -2.002324     -2.032581
  C      -0.310533     -2.202075      0.618661
  O       0.305565     -3.345842      0.251627
  C       1.355247     -3.859820      1.059530
  C      -0.345739     -1.746825      1.935243
  H      -2.711006      0.974156      3.687000
  H      -1.199366      1.907898      3.421689
  H      -1.498700      1.114171      5.001420
  H      -2.010117      1.200172      1.435617
  H      -1.907388      2.489847     -0.458504
  H      -2.880211      2.128624     -1.922771
  H      -3.486434      1.640115     -0.307057
  H      -3.347113     -2.374107     -1.858298
  H      -5.250548     -1.564782     -3.262064
  H      -2.474536      0.461721     -5.863534
  H      -0.550683     -0.389719     -4.451102
  H       0.622872      0.580791     -1.449183
  H       2.041456      0.602768     -2.560608
  H       3.495315      2.442779     -0.499089
  H       2.571486      4.202116      1.027448
  H       0.388105      3.641061      3.792334
  H       2.026548      3.877809      4.419479
  H       1.459096      4.850974      3.041851
  H       1.465441      1.135334      3.856095
  H       2.373084     -0.598672      2.329452
  H       3.070637     -1.956093     -2.677365
  H       2.073614     -3.015447     -1.617902
  H       2.164779     -3.118664      1.165715
  H       1.742749     -4.739404      0.528166
  H       0.992159     -4.183944      2.049494
  H       0.108483     -2.304465      2.751618
60
Coordinates from ORCA-job file E -2653.294398364499
  C      -1.610370      1.030206      3.916801
  O      -0.944408     -0.151072      3.531435
  C      -0.961149     -0.522973      2.228143
  C      -1.543331      0.246649      1.215258
  C      -1.486139     -0.212602     -0.110422
  O      -1.940437      0.522805     -1.149690
  C      -2.580687      1.758407     -0.928656
  C      -0.921003     -1.462859     -0.415600
  S      -0.497745     -2.053566     -2.094262
  C      -1.850318     -1.392524     -3.076487
  C      -3.158249     -1.748169     -2.738497
  C      -4.219637     -1.283676     -3.512334
  C      -3.954917     -0.477102     -4.624769
  Cl     -5.285050      0.112958     -5.592900
  C      -2.644590     -0.143642     -4.975648
  C      -1.584161     -0.611694     -4.197290
  C       0.953544     -1.336025     -2.686426
  C       1.387257     -0.051900     -1.952985
  N       2.164644     -0.912909     -1.021176
  S       3.596992     -0.414102     -0.290254
  O       4.063256     -1.576057      0.480949
  O       4.505775      0.247992     -1.238363
  C       2.960487      0.833058      0.822529
  C       3.009723      2.173869      0.443307
  C       2.485766      3.140505      1.304181
  C       1.926863      2.783619      2.540478
  C       1.393427      3.831365      3.484523
  C       1.897474      1.423614      2.896516
  C       2.408045      0.446949      2.045209
  C       2.171993     -2.016029     -2.029404
  C      -0.300143     -2.196176      0.621558
  O       0.319958     -3.336207      0.252209
  C       1.352678     -3.863448      1.071962
  C      -0.328742     -1.737445      1.937098
  H      -2.689788      0.981628      3.686621
  H      -1.180791      1.921154      3.425736
  H      -1.479690      1.123735      5.003364
  H      -1.998048      1.206622      1.438552
  H      -1.901464      2.491899     -0.458654
  H      -2.880781      2.128187     -1.918017
  H      -3.480105      1.643036     -0.298568
  H      -3.352419     -2.368743     -1.860302
  H      -5.249573     -1.544242     -3.263221
  H      -2.459534      0.476939     -5.854182
  H      -0.542936     -0.389861     -4.443913
  H       0.625347      0.573051     -1.462774
  H       2.043158      0.585809     -2.575447
  H       3.469100      2.446136     -0.508610
  H       2.525085      4.194492      1.015392
  H       0.355431      3.612280      3.785260
  H       1.991050      3.869998      4.411054
  H       1.410733      4.833535      3.031697
  H       1.468087      1.120298      3.854212
  H       2.389703     -0.606149      2.324782
  H       3.069436     -1.975781     -2.675711
  H       2.070504     -3.025088     -1.605801
  H       2.158196     -3.122869      1.208746
  H       1.752174     -4.733126      0.533448
  H       0.968254     -4.203548      2.048577
  H       0.132064     -2.291212      2.752265
60
Coordinates from ORCA-job file E -2653.293763355913
  C      -1.672434      1.019713      3.917620
  O      -0.956971     -0.130959      3.528327
  C      -0.973722     -0.509429      2.227011
  C      -1.599731      0.230249      1.218052
  C      -1.541229     -0.234166     -0.105874
  O      -2.040617      0.475344     -1.142725
  C      -2.728089      1.684873     -0.919165
  C      -0.931157     -1.462900     -0.411694
  S      -0.510617     -2.052061     -2.091955
  C      -1.849511     -1.366772     -3.076517
  C      -3.163933     -1.705869     -2.746939
  C      -4.214867     -1.222470     -3.523468
  C      -3.933545     -0.413395     -4.630010
  Cl     -5.250489      0.200818     -5.601061
  C      -2.617007     -0.096037     -4.972477
  C      -1.567138     -0.583211     -4.191548
  C       0.954342     -1.356256     -2.677440
  C       1.406368     -0.079459     -1.941774
  N       2.162440     -0.954190     -1.005060
  S       3.596967     -0.479638     -0.262630
  O       4.030568     -1.643574      0.524418
  O       4.528650      0.154661     -1.207487
  C       2.974875      0.790162      0.832694
  C       3.044389      2.125515      0.437475
  C       2.532145      3.109957      1.285234
  C       1.965040      2.776014      2.524273
  C       1.443394      3.842454      3.453963
  C       1.915821      1.421088      2.896761
  C       2.414248      0.427047      2.058617
  C       2.157903     -2.056451     -2.014439
  C      -0.266857     -2.164047      0.620919
  O       0.394284     -3.279330      0.248051
  C       1.454929     -3.763640      1.057919
  C      -0.295788     -1.698774      1.934090
  H      -2.750555      0.921423      3.697541
  H      -1.288477      1.928193      3.420973
  H      -1.536087      1.121699      5.002712
  H      -2.090494      1.171990      1.442571
  H      -2.072972      2.448568     -0.463286
  H      -3.057482      2.035805     -1.906059
  H      -3.612805      1.536554     -0.275302
  H      -3.371189     -2.328565     -1.873241
  H      -5.249533     -1.469963     -3.280651
  H      -2.418846      0.527169     -5.846300
  H      -0.521860     -0.373681     -4.431669
  H       0.653042      0.559762     -1.457331
  H       2.077764      0.545331     -2.560825
  H       3.510661      2.380816     -0.515752
  H       2.586707      4.159723      0.983761
  H       0.398823      3.646047      3.747837
  H       2.033518      3.878292      4.385301
  H       1.483277      4.839811      2.992086
  H       1.479578      1.135560      3.856785
  H       2.381624     -0.622316      2.350510
  H       3.059124     -2.029330     -2.656127
  H       2.037312     -3.064032     -1.592515
  H       2.232125     -2.991773      1.185166
  H       1.882954     -4.617969      0.516923
  H       1.093542     -4.115725      2.039177
  H       0.197588     -2.228656      2.746057
60
Coordinates from ORCA-job file E -2653.294319955520
  C      -1.649191      0.966280      3.952290
  O      -0.970094     -0.203890      3.555566
  C      -0.978470     -0.560374      2.247890
  C      -1.559923      0.217857      1.241517
  C      -1.494401     -0.226348     -0.089246
  O      -1.950851      0.518010     -1.121586
  C      -2.601689      1.745841     -0.887744
  C      -0.921603     -1.470378     -0.405851
  S      -0.498742     -2.055337     -2.087618
  C      -1.843551     -1.378448     -3.071240
  C      -3.155059     -1.733696     -2.747296
  C      -4.209060     -1.257821     -3.524346
  C      -3.933724     -0.439612     -4.625611
  Cl     -5.254830      0.165883     -5.596484
  C      -2.619776     -0.105985     -4.962772
  C      -1.566902     -0.586056     -4.181526
  C       0.960429     -1.350204     -2.677263
  C       1.401137     -0.062541     -1.954308
  N       2.168624     -0.920596     -1.010450
  S       3.604399     -0.420120     -0.286662
  O       4.063935     -1.571282      0.504149
  O       4.514777      0.221229     -1.247305
  C       2.973736      0.847163      0.807071
  C       3.039631      2.183485      0.414381
  C       2.516145      3.164137      1.260084
  C       1.940438      2.825330      2.493880
  C       1.400097      3.886613      3.418831
  C       1.897445      1.469828      2.864804
  C       2.407987      0.480084      2.029342
  C       2.171258     -2.033106     -2.009898
  C      -0.301829     -2.212237      0.626258
  O       0.324352     -3.344459      0.244763
  C       1.349619     -3.884250      1.064546
  C      -0.339305     -1.769091      1.946751
  H      -2.724126      0.916378      3.702497
  H      -1.216093      1.869164      3.486381
  H      -1.537469      1.039253      5.042499
  H      -2.020512      1.172803      1.474017
  H      -1.929771      2.478945     -0.406833
  H      -2.901580      2.124873     -1.873639
  H      -3.502179      1.616144     -0.262005
  H      -3.358058     -2.363322     -1.877540
  H      -5.241631     -1.517702     -3.285522
  H      -2.425874      0.524585     -5.832271
  H      -0.523312     -0.362874     -4.416721
  H       0.642777      0.574424     -1.475363
  H       2.065836      0.562341     -2.580296
  H       3.507772      2.443125     -0.536694
  H       2.564524      4.214430      0.959335
  H       0.354914      3.679998      3.703996
  H       1.981806      3.928352      4.355204
  H       1.434000      4.884312      2.957283
  H       1.453578      1.180058      3.820022
  H       2.376644     -0.570001      2.317715
  H       3.070575     -2.003777     -2.654011
  H       2.059850     -3.037373     -1.578095
  H       2.153734     -3.146063      1.220840
  H       1.754967     -4.744187      0.515258
  H       0.955855     -4.239382      2.032233
  H       0.118768     -2.330411      2.758295
60
Coordinates from ORCA-job file E -2653.293067659031
  C      -1.561495      1.215034      3.826621
  O      -0.911535      0.015332      3.472998
  C      -0.933668     -0.391447      2.180890
  C      -1.505823      0.357901      1.146785
  C      -1.457349     -0.137815     -0.166036
  O      -1.898969      0.576152     -1.224964
  C      -2.516981      1.828594     -1.040188
  C      -0.906657     -1.402913     -0.436487
  S      -0.476076     -2.018222     -2.104023
  C      -1.868351     -1.438317     -3.082151
  C      -3.155674     -1.831859     -2.708558
  C      -4.246786     -1.438046     -3.479815
  C      -4.030936     -0.663816     -4.625843
  Cl     -5.397135     -0.164508     -5.594608
  C      -2.741055     -0.292208     -5.010652
  C      -1.650061     -0.689272     -4.234457
  C       0.932586     -1.240146     -2.721716
  C       1.361671      0.016899     -1.940478
  N       2.169775     -0.876140     -1.068757
  S       3.597150     -0.397578     -0.319734
  O       4.076817     -1.595930      0.385028
  O       4.498510      0.324319     -1.230738
  C       2.950293      0.786976      0.852642
  C       2.998539      2.145171      0.544446
  C       2.482995      3.065222      1.459480
  C       1.923730      2.643217      2.674448
  C       1.407032      3.641571      3.678835
  C       1.881171      1.264634      2.952456
  C       2.391478      0.334175      2.050532
  C       2.187733     -1.919470     -2.135766
  C      -0.300937     -2.119720      0.620546
  O       0.284520     -3.291914      0.292527
  C       1.332471     -3.795999      1.110872
  C      -0.321266     -1.624058      1.922689
  H      -2.646332      1.166746      3.623609
  H      -1.137353      2.081788      3.290851
  H      -1.406293      1.349669      4.905667
  H      -1.944752      1.331328      1.342252
  H      -1.825573      2.562840     -0.589473
  H      -2.809030      2.176136     -2.040046
  H      -3.419733      1.747446     -0.409431
  H      -3.310881     -2.427626     -1.805891
  H      -5.261638     -1.729054     -3.204272
  H      -2.595269      0.300190     -5.915606
  H      -0.621763     -0.440998     -4.507714
  H       0.599823      0.601586     -1.401035
  H       1.990202      0.697653     -2.545902
  H       3.463480      2.463176     -0.390637
  H       2.535007      4.133681      1.232402
  H       0.377339      3.403495      3.989757
  H       2.025231      3.637834      4.592801
  H       1.413132      4.664970      3.275365
  H       1.451310      0.911024      3.893052
  H       2.374920     -0.731978      2.278793
  H       3.067386     -1.816811     -2.800264
  H       2.129677     -2.954139     -1.770407
  H       2.163773     -3.074205      1.170882
  H       1.688834     -4.710186      0.616946
  H       0.975994     -4.065171      2.119310
  H       0.126788     -2.165211      2.753667
60
Coordinates from ORCA-job file E -2653.294169540361
  C      -1.730393      1.134218      3.861979
  O      -1.035163     -0.038482      3.502211
  C      -1.029791     -0.431197      2.204992
  C      -1.612467      0.312148      1.173178
  C      -1.530526     -0.166751     -0.144507
  O      -1.986471      0.543163     -1.200744
  C      -2.654415      1.768691     -1.007142
  C      -0.937749     -1.410369     -0.422620
  S      -0.490307     -2.024331     -2.086774
  C      -1.862096     -1.422790     -3.082593
  C      -3.160550     -1.797018     -2.728842
  C      -4.234515     -1.381378     -3.513070
  C      -3.991468     -0.604231     -4.651145
  Cl     -5.337295     -0.075724     -5.632937
  C      -2.690229     -0.251560     -5.016693
  C      -1.617174     -0.670837     -4.227823
  C       0.938967     -1.275334     -2.695283
  C       1.383917     -0.009463     -1.937066
  N       2.192451     -0.891123     -1.050699
  S       3.643365     -0.399072     -0.351448
  O       4.148018     -1.579085      0.365917
  O       4.511494      0.304064     -1.308181
  C       3.030935      0.803503      0.822171
  C       3.080922      2.159209      0.501240
  C       2.578760      3.089617      1.414012
  C       2.038166      2.681045      2.642385
  C       1.524790      3.687778      3.640556
  C       2.006279      1.306638      2.938121
  C       2.498024      0.366696      2.036601
  C       2.180368     -1.963530     -2.091958
  C      -0.319233     -2.117736      0.633730
  O       0.320999     -3.254673      0.289930
  C       1.360220     -3.747451      1.122507
  C      -0.373423     -1.639731      1.941509
  H      -2.804488      1.062331      3.613947
  H      -1.309127      2.027757      3.367994
  H      -1.620517      1.242589      4.949424
  H      -2.086043      1.267639      1.375515
  H      -1.995989      2.523475     -0.541321
  H      -2.950222      2.116254     -2.005800
  H      -3.558902      1.645309     -0.385872
  H      -3.338223     -2.394288     -1.831170
  H      -5.257553     -1.657110     -3.252095
  H      -2.521820      0.345619     -5.914601
  H      -0.581845     -0.432913     -4.484151
  H       0.632023      0.596951     -1.410182
  H       2.019378      0.649127     -2.558880
  H       3.522836      2.471273     -0.446668
  H       2.618703      4.155176      1.171424
  H       0.494480      3.453937      3.956268
  H       2.144043      3.689574      4.553629
  H       1.530329      4.707886      3.229406
  H       1.589196      0.962786      3.887599
  H       2.478985     -0.697530      2.269575
  H       3.058533     -1.894386     -2.761829
  H       2.099367     -2.986055     -1.697500
  H       2.157290     -2.994387      1.239309
  H       1.770971     -4.625320      0.606321
  H       0.980362     -4.066759      2.107905
  H       0.083823     -2.173839      2.771738
60
Coordinates from ORCA-job file E -2653.292699600116
  C      -1.583044      0.771663      4.031432
  O      -0.937019     -0.402722      3.594483
  C      -0.959289     -0.716299      2.276666
  C      -1.529190      0.106635      1.298730
  C      -1.476503     -0.293738     -0.046574
  O      -1.920105      0.491318     -1.053611
  C      -2.544152      1.724824     -0.780359
  C      -0.928812     -1.537926     -0.403351
  S      -0.503436     -2.070657     -2.096016
  C      -1.829955     -1.342206     -3.071467
  C      -3.150874     -1.674446     -2.761073
  C      -4.190205     -1.158510     -3.532215
  C      -3.890944     -0.322215     -4.613472
  Cl     -5.193450      0.334117     -5.576541
  C      -2.568245     -0.009792     -4.936346
  C      -1.529971     -0.530673     -4.161289
  C       0.981047     -1.385931     -2.646366
  C       1.420783     -0.087944     -1.941097
  N       2.128172     -0.931473     -0.940617
  S       3.544231     -0.442687     -0.171007
  O       3.923639     -1.569311      0.693859
  O       4.521379      0.120922     -1.114629
  C       2.912015      0.901226      0.826960
  C       3.064521      2.212835      0.379373
  C       2.547083      3.256049      1.150689
  C       1.889487      3.003618      2.363750
  C       1.359892      4.132798      3.211195
  C       1.755537      1.670334      2.790023
  C       2.262811      0.619326      2.030537
  C       2.147558     -2.074129     -1.906851
  C      -0.321670     -2.326796      0.599447
  O       0.282146     -3.455547      0.172326
  C       1.334673     -4.019871      0.939436
  C      -0.345444     -1.927392      1.933771
  H      -2.662053      0.754183      3.794972
  H      -1.134510      1.676157      3.583987
  H      -1.455917      0.812277      5.121636
  H      -1.969554      1.062573      1.564217
  H      -1.856367      2.428027     -0.277727
  H      -2.836602      2.140924     -1.753440
  H      -3.446952      1.595371     -0.157872
  H      -3.372281     -2.317912     -1.905975
  H      -5.229630     -1.399658     -3.303609
  H      -2.356154      0.636850     -5.789710
  H      -0.479776     -0.323392     -4.382586
  H       0.658559      0.578980     -1.513168
  H       2.123949      0.504760     -2.556285
  H       3.595854      2.403603     -0.554652
  H       2.666319      4.287686      0.807896
  H       0.300468      3.978570      3.473664
  H       1.914809      4.206843      4.161879
  H       1.445004      5.101620      2.697458
  H       1.241829      1.447872      3.728205
  H       2.165354     -0.412574      2.364906
  H       3.073639     -2.082995     -2.512479
  H       1.997190     -3.064045     -1.451535
  H       2.156840     -3.296451      1.066206
  H       1.702686     -4.877990      0.361933
  H       0.980262     -4.382740      1.919327
  H       0.104366     -2.523943      2.724461
60
Coordinates from ORCA-job file E -2653.294410780253
  C      -1.667001      1.016142      3.915556
  O      -0.979108     -0.153092      3.531248
  C      -0.985822     -0.524999      2.228033
  C      -1.566836      0.241073      1.211890
  C      -1.497616     -0.217382     -0.113702
  O      -1.952401      0.513445     -1.156004
  C      -2.605363      1.743168     -0.939318
  C      -0.920821     -1.462939     -0.415073
  S      -0.491637     -2.052250     -2.091955
  C      -1.847160     -1.388864     -3.071328
  C      -3.154858     -1.744837     -2.732881
  C      -4.216904     -1.279595     -3.505361
  C      -3.953131     -0.471026     -4.616609
  Cl     -5.283987      0.120332     -5.582853
  C      -2.643217     -0.136101     -4.967476
  C      -1.582121     -0.605273     -4.190486
  C       0.958970     -1.332300     -2.685120
  C       1.397250     -0.049682     -1.952098
  N       2.175821     -0.912542     -1.022162
  S       3.611773     -0.412893     -0.298361
  O       4.081461     -1.572357      0.473916
  O       4.515379      0.248164     -1.252341
  C       2.980592      0.836677      0.814409
  C       3.060846      2.179686      0.449465
  C       2.544654      3.147762      1.313818
  C       1.960116      2.789155      2.537618
  C       1.432629      3.836870      3.484796
  C       1.898279      1.426332      2.878556
  C       2.403721      0.449150      2.025471
  C       2.179029     -2.014054     -2.032540
  C      -0.305018     -2.195170      0.626349
  O       0.316583     -3.335781      0.261540
  C       1.346174     -3.862101      1.085142
  C      -0.345532     -1.737113      1.941696
  H      -2.743312      0.952252      3.674991
  H      -1.246595      1.916028      3.432859
  H      -1.548001      1.106428      5.003712
  H      -2.029143      1.198088      1.432393
  H      -1.935624      2.483310     -0.466173
  H      -2.903478      2.109413     -1.930594
  H      -3.507320      1.620336     -0.314261
  H      -3.348658     -2.366654     -1.855450
  H      -5.246675     -1.540108     -3.255444
  H      -2.458754      0.486907     -5.844430
  H      -0.541003     -0.380807     -4.435365
  H       0.638183      0.577647     -1.460970
  H       2.053139      0.586005     -2.576694
  H       3.536039      2.452990     -0.494316
  H       2.607391      4.203659      1.036365
  H       0.395354      3.620359      3.789262
  H       2.034240      3.872057      4.408999
  H       1.452059      4.839933      3.033919
  H       1.446056      1.121818      3.825282
  H       2.361317     -0.606281      2.293219
  H       3.073742     -1.971857     -2.682541
  H       2.078672     -3.023906     -1.611636
  H       2.156395     -3.125628      1.216133
  H       1.741814     -4.737393      0.553065
  H       0.959974     -4.192320      2.064455
  H       0.109443     -2.289882      2.760884
60
Coordinates from ORCA-job file E -2653.294370503352
  C      -1.651998      1.030277      3.922769
  O      -0.971765     -0.142286      3.535324
  C      -0.982502     -0.511237      2.231285
  C      -1.560672      0.260110      1.217729
  C      -1.495168     -0.195135     -0.109282
  O      -1.942856      0.544820     -1.148160
  C      -2.583318      1.780098     -0.925827
  C      -0.928152     -1.445069     -0.414237
  S      -0.499649     -2.039489     -2.090473
  C      -1.857182     -1.396742     -3.080410
  C      -3.161631     -1.775266     -2.754354
  C      -4.224165     -1.327679     -3.536428
  C      -3.963819     -0.515011     -4.645557
  Cl     -5.295451      0.054039     -5.624084
  C      -2.656485     -0.159181     -4.985154
  C      -1.594889     -0.610930     -4.198646
  C       0.948565     -1.317367     -2.685446
  C       1.391537     -0.041774     -1.942821
  N       2.166709     -0.915106     -1.020272
  S       3.603334     -0.428211     -0.290142
  O       4.061597     -1.594297      0.479099
  O       4.514162      0.229003     -1.239747
  C       2.976953      0.822142      0.824942
  C       3.052817      2.164877      0.457707
  C       2.537547      3.133151      1.322415
  C       1.958925      2.775225      2.549242
  C       1.432807      3.823511      3.496719
  C       1.902292      1.412823      2.892937
  C       2.405894      0.435315      2.038992
  C       2.167283     -2.007857     -2.040000
  C      -0.309728     -2.178922      0.624179
  O       0.317521     -3.314285      0.252799
  C       1.354740     -3.836284      1.069602
  C      -0.345428     -1.723700      1.940561
  H      -2.728366      0.974585      3.680469
  H      -1.224708      1.928909      3.443695
  H      -1.533792      1.116084      5.011379
  H      -2.016675      1.219469      1.441142
  H      -1.906552      2.510820     -0.448091
  H      -2.876516      2.154421     -1.915550
  H      -3.487196      1.663332     -0.302406
  H      -3.352954     -2.400363     -1.878731
  H      -5.251640     -1.605473     -3.295906
  H      -2.474275      0.465701     -5.861250
  H      -0.555403     -0.371066     -4.435544
  H       0.634814      0.584059     -1.446018
  H       2.049392      0.596765     -2.562377
  H       3.524555      2.438011     -0.487851
  H       2.597026      4.188799      1.043161
  H       0.398333      3.603600      3.808177
  H       2.039786      3.864048      4.417191
  H       1.445175      4.825338      3.042862
  H       1.454977      1.108755      3.842157
  H       2.367595     -0.619735      2.308494
  H       3.061843     -1.962611     -2.690015
  H       2.064232     -3.021135     -1.627151
  H       2.160405     -3.094417      1.199329
  H       1.753868     -4.706948      0.532541
  H       0.975545     -4.172531      2.049576
  H       0.112707     -2.277978      2.756953
60
Coordinates from ORCA-job file E -2653.294407849042
  C      -1.642373      1.008138      3.929264
  O      -0.964219     -0.164724      3.539084
  C      -0.975412     -0.530447      2.234081
  C      -1.553762      0.243562      1.222610
  C      -1.489363     -0.208845     -0.105467
  O      -1.940972      0.531219     -1.142697
  C      -2.584686      1.764334     -0.917776
  C      -0.920465     -1.456717     -0.413827
  S      -0.494575     -2.045948     -2.092367
  C      -1.847627     -1.386272     -3.076787
  C      -3.156603     -1.729931     -2.731035
  C      -4.217384     -1.268558     -3.507539
  C      -3.951033     -0.476982     -4.630403
  Cl     -5.280200      0.109007     -5.602221
  C      -2.639832     -0.155170     -4.988684
  C      -1.580092     -0.620321     -4.207569
  C       0.956805     -1.327811     -2.684450
  C       1.396652     -0.048181     -1.946995
  N       2.169701     -0.916029     -1.017650
  S       3.603669     -0.423520     -0.286319
  O       4.061703     -1.584894      0.490253
  O       4.516047      0.229870     -1.237062
  C       2.971610      0.831469      0.820461
  C       3.043868      2.172402      0.445841
  C       2.521455      3.143607      1.302961
  C       1.939147      2.790476      2.529484
  C       1.404516      3.842135      3.468448
  C       1.886810      1.429915      2.880988
  C       2.397551      0.449518      2.034621
  C       2.173262     -2.014849     -2.030898
  C      -0.303333     -2.194433      0.622762
  O       0.319877     -3.331244      0.249246
  C       1.349956     -3.862987      1.068950
  C      -0.339819     -1.743060      1.940452
  H      -2.718258      0.956131      3.684086
  H      -1.211501      1.907478      3.454581
  H      -1.526581      1.089618      5.018465
  H      -2.010183      1.202081      1.448674
  H      -1.909400      2.496275     -0.439815
  H      -2.880201      2.139269     -1.906581
  H      -3.487451      1.644097     -0.293395
  H      -3.352236     -2.339034     -1.845125
  H      -5.248129     -1.519800     -3.252289
  H      -2.453258      0.453794     -5.875012
  H      -0.538168     -0.407802     -4.459339
  H       0.637937      0.579672     -1.455833
  H       2.055947      0.587691     -2.567768
  H       3.517600      2.442008     -0.499736
  H       2.577543      4.197830      1.017669
  H       0.372619      3.615248      3.783484
  H       2.012480      3.896642      4.387583
  H       1.406813      4.839996      3.005765
  H       1.436942      1.129370      3.830143
  H       2.361605     -0.604148      2.309595
  H       3.070000     -1.973608     -2.678181
  H       2.068487     -3.025616     -1.612378
  H       2.158817     -3.126224      1.207042
  H       1.747371     -4.732918      0.529438
  H       0.963529     -4.202463      2.044999
  H       0.116795     -2.300318      2.755666
60
Coordinates from ORCA-job file E -2653.294402768048
  C      -1.647654      1.008416      3.927953
  O      -0.965663     -0.162948      3.539757
  C      -0.975630     -0.531014      2.235351
  C      -1.556748      0.239213      1.222553
  C      -1.492340     -0.216126     -0.104534
  O      -1.948907      0.518505     -1.143485
  C      -2.598277      1.749201     -0.921645
  C      -0.919140     -1.462315     -0.410456
  S      -0.495374     -2.051616     -2.089281
  C      -1.847321     -1.382138     -3.068742
  C      -3.155485     -1.749244     -2.744319
  C      -4.214134     -1.281574     -3.519924
  C      -3.946428     -0.459009     -4.619984
  Cl     -5.273051      0.135471     -5.590131
  C      -2.635876     -0.112303     -4.956609
  C      -1.578092     -0.584177     -4.176731
  C       0.957588     -1.337026     -2.682681
  C       1.398949     -0.055687     -1.949321
  N       2.170308     -0.921668     -1.016551
  S       3.605104     -0.427998     -0.287530
  O       4.062803     -1.587340      0.492331
  O       4.517894      0.221994     -1.240217
  C       2.973788      0.830768      0.815202
  C       3.053724      2.171076      0.440236
  C       2.531961      3.145024      1.294688
  C       1.941669      2.794967      2.518262
  C       1.407265      3.849274      3.454294
  C       1.880908      1.434719      2.869775
  C       2.391819      0.451824      2.026595
  C       2.173395     -2.023343     -2.026755
  C      -0.300739     -2.197353      0.627335
  O       0.320458     -3.336546      0.257342
  C       1.353442     -3.864500      1.076143
  C      -0.337977     -1.743293      1.944119
  H      -2.723246      0.952950      3.682384
  H      -1.219143      1.908324      3.452174
  H      -1.532748      1.091694      5.017108
  H      -2.015754      1.196946      1.446722
  H      -1.925749      2.486101     -0.447439
  H      -2.897467      2.119327     -1.911157
  H      -3.499334      1.626688     -0.295220
  H      -3.352369     -2.382522     -1.875854
  H      -5.244238     -1.551106     -3.281274
  H      -2.448217      0.521540     -5.825071
  H      -0.536372     -0.351617     -4.411241
  H       0.640969      0.574932     -1.460771
  H       2.059478      0.577064     -2.571956
  H       3.532734      2.437738     -0.503526
  H       2.594395      4.198856      1.009296
  H       0.375562      3.623218      3.770512
  H       2.015843      3.906388      4.372896
  H       1.409561      4.845877      2.988872
  H       1.424987      1.136275      3.816691
  H       2.349450     -0.601516      2.302057
  H       3.070399     -1.984483     -2.673846
  H       2.067998     -3.032904     -1.605782
  H       2.164331     -3.128462      1.205507
  H       1.747025     -4.738662      0.540643
  H       0.971022     -4.197188      2.056086
  H       0.118644     -2.298693      2.760650
60
Coordinates from ORCA-job file E -2653.294413880194
  C      -1.645965      1.007413      3.930113
  O      -0.964642     -0.163765      3.540249
  C      -0.975452     -0.530282      2.235409
  C      -1.555223      0.242154      1.223582
  C      -1.490933     -0.211275     -0.104180
  O      -1.944222      0.527036     -1.141932
  C      -2.589882      1.759289     -0.917962
  C      -0.920444     -1.458488     -0.411725
  S      -0.495702     -2.048070     -2.090587
  C      -1.848097     -1.384400     -3.073312
  C      -3.156725     -1.739934     -2.738193
  C      -4.216383     -1.276325     -3.514872
  C      -3.949226     -0.470123     -4.627104
  Cl     -5.276989      0.118850     -5.599047
  C      -2.638290     -0.135931     -4.974738
  C      -1.579572     -0.603576     -4.193641
  C       0.956704     -1.332113     -2.683274
  C       1.397538     -0.051949     -1.947349
  N       2.169693     -0.919341     -1.016690
  S       3.604182     -0.426803     -0.286414
  O       4.061534     -1.587210      0.492086
  O       4.517343      0.224250     -1.238019
  C       2.972576      0.830471      0.817905
  C       3.050503      2.171173      0.443827
  C       2.528271      3.143852      1.299404
  C       1.939975      2.792253      2.523510
  C       1.406076      3.845435      3.461134
  C       1.881457      1.431723      2.874232
  C       2.392491      0.449993      2.029689
  C       2.172716     -2.019260     -2.028698
  C      -0.302346     -2.194997      0.625118
  O       0.320507     -3.332443      0.252728
  C       1.353397     -3.861321      1.070943
  C      -0.338630     -1.742508      1.942455
  H      -2.721547      0.952960      3.684270
  H      -1.216836      1.907761      3.455752
  H      -1.531158      1.089007      5.019409
  H      -2.012290      1.200542      1.448952
  H      -1.915495      2.492989     -0.441433
  H      -2.886906      2.132556     -1.906948
  H      -3.491933      1.638210     -0.292692
  H      -3.353098     -2.360381     -1.860383
  H      -5.246855     -1.536746     -3.267834
  H      -2.451067      0.484695     -5.852794
  H      -0.537699     -0.381220     -4.437006
  H       0.639237      0.577124     -1.457154
  H       2.057435      0.582603     -2.568831
  H       3.528393      2.439236     -0.500110
  H       2.589057      4.197959      1.014663
  H       0.377149      3.615316      3.783296
  H       2.019422      3.906446      4.376333
  H       1.401513      4.841458      2.994474
  H       1.427082      1.132009      3.821485
  H       2.351784     -0.603609      2.304355
  H       3.069591     -1.979259     -2.675877
  H       2.067404     -3.029503     -1.609197
  H       2.162970     -3.124335      1.203385
  H       1.748792     -4.733297      0.533227
  H       0.970361     -4.197396      2.049487
  H       0.118452     -2.298902      2.758026
60
Coordinates from ORCA-job file E -2653.294414214526
  C      -1.646000      1.007856      3.930230
  O      -0.964224     -0.163040      3.540292
  C      -0.975181     -0.529625      2.235455
  C      -1.554713      0.242939      1.223605
  C      -1.490398     -0.210463     -0.104172
  O      -1.943286      0.528078     -1.141941
  C      -2.588381      1.760623     -0.918002
  C      -0.920285     -1.457849     -0.411665
  S      -0.495695     -2.047776     -2.090583
  C      -1.847890     -1.384037     -3.073450
  C      -3.156654     -1.738271     -2.737467
  C      -4.216275     -1.274701     -3.514207
  C      -3.948950     -0.469896     -4.627416
  Cl     -5.276629      0.118967     -5.599546
  C      -2.637913     -0.137001     -4.975880
  C      -1.579223     -0.604583     -4.194700
  C       0.956820     -1.332052     -2.683334
  C       1.397732     -0.052086     -1.947018
  N       2.169949     -0.919796     -1.016757
  S       3.604291     -0.427563     -0.286097
  O       4.061332     -1.588086      0.492463
  O       4.517945      0.223290     -1.237365
  C       2.972359      0.829650      0.818090
  C       3.047635      2.170227      0.443013
  C       2.524555      3.142580      1.298429
  C       1.938248      2.790826      2.523463
  C       1.404404      3.843866      3.461276
  C       1.882446      1.430464      2.875184
  C       2.394224      0.449012      2.030741
  C       2.172821     -2.019433     -2.028991
  C      -0.302251     -2.194406      0.625148
  O       0.320598     -3.331841      0.252709
  C       1.353688     -3.860616      1.070796
  C      -0.338446     -1.741890      1.942485
  H      -2.721473      0.953219      3.683950
  H      -1.216901      1.908448      3.456290
  H      -1.531657      1.089152      5.019599
  H      -2.011382      1.201532      1.448921
  H      -1.913708      2.493990     -0.441363
  H      -2.885120      2.134075     -1.907006
  H      -3.490563      1.639943     -0.292844
  H      -3.353141     -2.357624     -1.858906
  H      -5.246842     -1.534110     -3.266508
  H      -2.450577      0.482560     -5.854665
  H      -0.537279     -0.383328     -4.438759
  H       0.639438      0.576748     -1.456485
  H       2.057499      0.582752     -2.568353
  H       3.524077      2.438411     -0.501626
  H       2.583149      4.196582      1.012830
  H       0.380213      3.607258      3.793529
  H       2.025411      3.913488      4.370724
  H       1.388286      4.837894      2.990600
  H       1.429537      1.130470      3.823041
  H       2.355586     -0.604453      2.306211
  H       3.069641     -1.979372     -2.676243
  H       2.067470     -3.029775     -1.609719
  H       2.163314     -3.123620      1.202904
  H       1.748882     -4.732714      0.533117
  H       0.970838     -4.196599      2.049435
  H       0.118653     -2.298295      2.758037
60
Coordinates from ORCA-job file E -2653.294422142303
  C      -1.647391      1.021360      3.925601
  O      -0.959724     -0.146603      3.536969
  C      -0.972369     -0.516401      2.232869
  C      -1.549893      0.255475      1.219472
  C      -1.485857     -0.200276     -0.107568
  O      -1.934841      0.538454     -1.146957
  C      -2.574766      1.774081     -0.925737
  C      -0.919399     -1.449854     -0.412154
  S      -0.496535     -2.046079     -2.090533
  C      -1.847322     -1.383637     -3.075566
  C      -3.157061     -1.726341     -2.731331
  C      -4.216629     -1.264787     -3.509247
  C      -3.948310     -0.474077     -4.632313
  Cl     -5.275560      0.111468     -5.607093
  C      -2.636594     -0.152677     -4.988667
  C      -1.577873     -0.617970     -4.206112
  C       0.956898     -1.333042     -2.685352
  C       1.398121     -0.053773     -1.947014
  N       2.170822     -0.922931     -1.018755
  S       3.604208     -0.431353     -0.286338
  O       4.062864     -1.593295      0.489661
  O       4.519167      0.221446     -1.234967
  C       2.968749      0.821515      0.820627
  C       3.015286      2.161705      0.439413
  C       2.485761      3.127867      1.297718
  C       1.923878      2.770912      2.532858
  C       1.396499      3.819897      3.478798
  C       1.896436      1.411426      2.890167
  C       2.413618      0.435566      2.042200
  C       2.172814     -2.021224     -2.031889
  C      -0.301831     -2.185017      0.625512
  O       0.319953     -3.323671      0.254741
  C       1.357261     -3.848603      1.070599
  C      -0.336814     -1.729732      1.941986
  H      -2.721537      0.963523      3.674393
  H      -1.219213      1.924097      3.454812
  H      -1.538451      1.101267      5.015647
  H      -2.002338      1.216637      1.442481
  H      -1.897482      2.505417     -0.449662
  H      -2.869054      2.147185     -1.915618
  H      -3.478067      1.658274     -0.301258
  H      -3.354181     -2.334649     -1.845201
  H      -5.247883     -1.515266     -3.255318
  H      -2.448668      0.456117     -5.874836
  H      -0.535398     -0.406465     -4.456524
  H       0.639703      0.573590     -1.454686
  H       2.056969      0.582658     -2.567716
  H       3.474610      2.434013     -0.512545
  H       2.521205      4.181476      1.006750
  H       0.437186      3.515552      3.927418
  H       2.100025      3.985193      4.313265
  H       1.247957      4.786217      2.974358
  H       1.460985      1.105605      3.844225
  H       2.397368     -0.617098      2.322792
  H       3.069136     -1.980938     -2.679778
  H       2.067499     -3.032084     -1.613610
  H       2.167967     -3.111284      1.194116
  H       1.748653     -4.724076      0.535507
  H       0.979091     -4.179919      2.052547
  H       0.120352     -2.284870      2.758342
60
Coordinates from ORCA-job file E -2653.294434995062
  C      -1.642604      1.045809      3.915002
  O      -0.951977     -0.121708      3.530177
  C      -0.966923     -0.497064      2.227622
  C      -1.542640      0.272624      1.211595
  C      -1.480472     -0.188198     -0.113748
  O      -1.926887      0.548374     -1.155810
  C      -2.560709      1.787858     -0.939136
  C      -0.917962     -1.440571     -0.413531
  S      -0.497438     -2.044841     -2.090359
  C      -1.847467     -1.384481     -3.077327
  C      -3.157625     -1.719864     -2.727347
  C      -4.217468     -1.260528     -3.506119
  C      -3.949032     -0.479536     -4.635939
  Cl     -5.276410      0.102762     -5.612537
  C      -2.637095     -0.165298     -4.997688
  C      -1.578025     -0.628283     -4.214226
  C       0.956817     -1.335163     -2.688819
  C       1.399222     -0.055730     -1.950623
  N       2.171331     -0.925368     -1.022473
  S       3.603843     -0.434166     -0.288451
  O       4.066031     -1.598739      0.481924
  O       4.517878      0.224241     -1.233967
  C       2.964849      0.811089      0.825012
  C       2.974173      2.150512      0.437787
  C       2.437825      3.107869      1.301418
  C       1.908083      2.743765      2.548909
  C       1.384535      3.786607      3.503752
  C       1.918178      1.385907      2.911938
  C       2.441209      0.418025      2.057934
  C       2.172361     -2.023719     -2.035215
  C      -0.301077     -2.173110      0.626096
  O       0.318152     -3.314460      0.259052
  C       1.359189     -3.835077      1.073478
  C      -0.334037     -1.712669      1.940862
  H      -2.716033      0.985774      3.661283
  H      -1.214853      1.948308      3.443423
  H      -1.536659      1.127816      5.005226
  H      -1.990837      1.236647      1.430898
  H      -1.879806      2.517747     -0.465986
  H      -2.853510      2.158676     -1.930325
  H      -3.464402      1.678783     -0.313998
  H      -3.354713     -2.320452     -1.835935
  H      -5.249004     -1.505364     -3.247889
  H      -2.449234      0.436170     -5.888872
  H      -0.535359     -0.422724     -4.468764
  H       0.641259      0.571908     -1.457975
  H       2.058135      0.580371     -2.571582
  H       3.410395      2.428797     -0.523322
  H       2.443098      4.160601      1.004999
  H       0.511276      3.420725      4.066155
  H       2.154092      4.055345      4.248757
  H       1.096672      4.711155      2.981103
  H       1.506189      1.073175      3.874022
  H       2.454271     -0.633373      2.343387
  H       3.068366     -1.984300     -2.683556
  H       2.066710     -3.034517     -1.616690
  H       2.171422     -3.097899      1.187268
  H       1.746207     -4.715048      0.542498
  H       0.985483     -4.159712      2.059285
  H       0.123005     -2.265476      2.758847
60
Coordinates from ORCA-job file E -2653.294479700656
  C      -1.635393      1.066520      3.904875
  O      -0.944341     -0.101901      3.523338
  C      -0.962528     -0.482588      2.222444
  C      -1.538107      0.284628      1.204446
  C      -1.478685     -0.180975     -0.119271
  O      -1.925769      0.552503     -1.163238
  C      -2.557028      1.793808     -0.949856
  C      -0.917980     -1.435015     -0.415300
  S      -0.497989     -2.043949     -2.090805
  C      -1.847840     -1.385582     -3.079183
  C      -3.157816     -1.721511     -2.728974
  C      -4.217939     -1.263790     -3.508272
  C      -3.949925     -0.483678     -4.638789
  Cl     -5.277571      0.096684     -5.616173
  C      -2.638180     -0.168830     -5.000682
  C      -1.578793     -0.630368     -4.216815
  C       0.956935     -1.335960     -2.691315
  C       1.400718     -0.056332     -1.953714
  N       2.171268     -0.926440     -1.024748
  S       3.602916     -0.436384     -0.288410
  O       4.066616     -1.603620      0.477249
  O       4.516577      0.226904     -1.230736
  C       2.962075      0.803169      0.830282
  C       2.950769      2.142481      0.441485
  C       2.411639      3.093904      1.309316
  C       1.900116      2.724820      2.563309
  C       1.379854      3.764835      3.523043
  C       1.931081      1.368078      2.927788
  C       2.456772      0.405299      2.068893
  C       2.171850     -2.025030     -2.037135
  C      -0.301649     -2.165428      0.626008
  O       0.314939     -3.309369      0.262262
  C       1.358493     -3.826814      1.075750
  C      -0.332673     -1.700566      1.939273
  H      -2.708802      1.005412      3.651266
  H      -1.207963      1.967782      3.430830
  H      -1.529739      1.151433      4.994944
  H      -1.983692      1.250536      1.420798
  H      -1.874060      2.524133     -0.480352
  H      -2.850817      2.161721     -1.941838
  H      -3.459907      1.688552     -0.322875
  H      -3.354524     -2.321349     -1.836961
  H      -5.249338     -1.509091     -3.249939
  H      -2.450721      0.431995     -5.892392
  H      -0.536226     -0.424424     -4.471337
  H       0.643366      0.572439     -1.461709
  H       2.060710      0.578562     -2.574724
  H       3.373591      2.424995     -0.524399
  H       2.399724      4.146128      1.010985
  H       0.600696      3.355512      4.183877
  H       2.191878      4.132732      4.175144
  H       0.966133      4.637737      2.995381
  H       1.531489      1.050868      3.893517
  H       2.485673     -0.645536      2.355309
  H       3.067895     -1.986433     -2.685455
  H       2.065652     -3.035694     -1.618454
  H       2.171991     -3.089965      1.182029
  H       1.742137     -4.710393      0.548292
  H       0.988093     -4.145770      2.064623
  H       0.124344     -2.251387      2.758595
60
Coordinates from ORCA-job file E -2653.294188102018
  C      -1.535373      1.099429      3.895659
  O      -0.890056     -0.095899      3.517086
  C      -0.901338     -0.471855      2.215191
  C      -1.476440      0.296354      1.197030
  C      -1.435821     -0.179397     -0.123572
  O      -1.887579      0.549579     -1.169248
  C      -2.495664      1.803528     -0.959690
  C      -0.897122     -1.443860     -0.418320
  S      -0.500708     -2.063139     -2.088810
  C      -1.840749     -1.372473     -3.068768
  C      -3.156222     -1.693170     -2.726046
  C      -4.207463     -1.201084     -3.497159
  C      -3.925690     -0.402652     -4.611238
  Cl     -5.243875      0.222687     -5.573585
  C      -2.607985     -0.104493     -4.967362
  C      -1.558265     -0.598566     -4.190660
  C       0.960312     -1.376385     -2.694052
  C       1.402394     -0.089224     -1.976063
  N       2.164358     -0.943609     -1.024813
  S       3.588797     -0.437686     -0.284188
  O       4.068679     -1.598789      0.479084
  O       4.481257      0.252880     -1.226778
  C       2.926288      0.784133      0.841721
  C       2.791062      2.104580      0.404628
  C       2.223295      3.044530      1.261446
  C       1.815571      2.690374      2.559489
  C       1.237371      3.733730      3.480648
  C       1.980478      1.361538      2.975020
  C       2.521138      0.402057      2.118820
  C       2.166595     -2.061622     -2.017595
  C      -0.273941     -2.171538      0.623089
  O       0.325477     -3.323466      0.259960
  C       1.335363     -3.876137      1.089398
  C      -0.286100     -1.697331      1.933301
  H      -2.611508      1.073690      3.648139
  H      -1.077645      1.983749      3.418259
  H      -1.420315      1.185215      4.984326
  H      -1.923071      1.260846      1.415039
  H      -1.794668      2.526641     -0.505963
  H      -2.795528      2.166729     -1.951545
  H      -3.391721      1.719259     -0.319920
  H      -3.363787     -2.306819     -1.846211
  H      -5.242959     -1.433712     -3.243523
  H      -2.409017      0.510917     -5.846412
  H      -0.512210     -0.400501     -4.439407
  H       0.644631      0.555146     -1.503619
  H       2.071556      0.527986     -2.605049
  H       3.142872      2.385068     -0.589546
  H       2.120306      4.081684      0.929595
  H       0.535517      3.294087      4.210673
  H       2.031550      4.239033      4.054825
  H       0.697123      4.512383      2.918040
  H       1.678629      1.071846      3.983359
  H       2.655725     -0.631345      2.439080
  H       3.069016     -2.038509     -2.657913
  H       2.049304     -3.063306     -1.580015
  H       2.153110     -3.152753      1.242705
  H       1.726111     -4.749655      0.550948
  H       0.929923     -4.211096      2.059638
  H       0.169011     -2.249610      2.752373
60
Coordinates from ORCA-job file E -2653.294343007656
  C      -1.529584      1.119931      3.883997
  O      -0.887155     -0.078510      3.509945
  C      -0.899899     -0.459650      2.209693
  C      -1.474062      0.305925      1.188956
  C      -1.435442     -0.174962     -0.129762
  O      -1.887698      0.550208     -1.177865
  C      -2.495258      1.805107     -0.972496
  C      -0.897863     -1.440916     -0.420194
  S      -0.501234     -2.064411     -2.088542
  C      -1.841891     -1.375797     -3.069436
  C      -3.156949     -1.699160     -2.727729
  C      -4.208660     -1.207874     -3.498746
  C      -3.927687     -0.407340     -4.611481
  Cl     -5.246543      0.217377     -5.573298
  C      -2.610275     -0.106533     -4.966631
  C      -1.560126     -0.599936     -4.190132
  C       0.959764     -1.378111     -2.695514
  C       1.402121     -0.089941     -1.979732
  N       2.163738     -0.942770     -1.026453
  S       3.588976     -0.434608     -0.288278
  O       4.075713     -1.597339      0.468071
  O       4.474835      0.264263     -1.230848
  C       2.926185      0.779566      0.845629
  C       2.786119      2.102295      0.415350
  C       2.217707      3.035914      1.277714
  C       1.814124      2.674009      2.575443
  C       1.236752      3.714158      3.500657
  C       1.984593      1.344412      2.984240
  C       2.525783      0.390331      2.121499
  C       2.165861     -2.062444     -2.017754
  C      -0.275803     -2.166151      0.623587
  O       0.321457     -3.320577      0.264430
  C       1.334869     -3.868569      1.092635
  C      -0.287573     -1.687604      1.932215
  H      -2.605380      1.096487      3.634820
  H      -1.068392      2.001548      3.405104
  H      -1.416229      1.208244      4.972652
  H      -1.918989      1.271920      1.403690
  H      -1.793499      2.529884     -0.522625
  H      -2.796341      2.164395     -1.965404
  H      -3.390475      1.723646     -0.331190
  H      -3.363901     -2.314333     -1.848816
  H      -5.243895     -1.442517     -3.245896
  H      -2.411949      0.510530     -5.844666
  H      -0.514214     -0.399463     -4.437614
  H       0.644614      0.555909     -1.508997
  H       2.072216      0.525402     -2.609447
  H       3.134091      2.388886     -0.578436
  H       2.109950      4.074243      0.950783
  H       0.636446      3.260107      4.307718
  H       2.035951      4.304618      3.978703
  H       0.593348      4.424788      2.955940
  H       1.684522      1.049045      3.991320
  H       2.663684     -0.644431      2.435962
  H       3.068253     -2.040290     -2.658123
  H       2.048593     -3.063508     -1.578748
  H       2.153826     -3.144782      1.237041
  H       1.722500     -4.745907      0.558188
  H       0.934074     -4.196706      2.067134
  H       0.166296     -2.238006      2.753237
60
Coordinates from ORCA-job file E -2653.294462369969
  C      -1.519953      1.141919      3.872270
  O      -0.882274     -0.060489      3.502554
  C      -0.897120     -0.446632      2.203991
  C      -1.470724      0.316441      1.180998
  C      -1.434745     -0.169408     -0.135873
  O      -1.887749      0.552336     -1.186015
  C      -2.493660      1.808632     -0.984385
  C      -0.898630     -1.436949     -0.422457
  S      -0.501746     -2.064105     -2.088841
  C      -1.843147     -1.378414     -3.071049
  C      -3.157797     -1.703612     -2.729559
  C      -4.210039     -1.214188     -3.501059
  C      -3.929936     -0.413569     -4.613936
  Cl     -5.249512      0.209130     -5.576059
  C      -2.612850     -0.111055     -4.968933
  C      -1.562189     -0.602703     -4.192025
  C       0.959292     -1.378338     -2.697270
  C       1.402511     -0.089522     -1.983365
  N       2.163551     -0.941453     -1.028693
  S       3.588732     -0.432313     -0.290883
  O       4.080746     -1.597412      0.458287
  O       4.469466      0.275177     -1.231720
  C       2.925048      0.773853      0.850958
  C       2.775193      2.097692      0.425642
  C       2.206512      3.024917      1.293758
  C       1.811939      2.656346      2.592969
  C       1.233847      3.693122      3.521467
  C       1.992486      1.327155      2.996615
  C       2.534340      0.378554      2.127388
  C       2.165285     -2.062346     -2.018797
  C      -0.277504     -2.159942      0.623456
  O       0.317098     -3.316968      0.267938
  C       1.332369     -3.862168      1.095643
  C      -0.287901     -1.677052      1.930476
  H      -2.595921      1.121535      3.623575
  H      -1.055389      2.019916      3.390287
  H      -1.406049      1.233639      4.960597
  H      -1.913708      1.283972      1.392767
  H      -1.790360      2.534343     -0.538429
  H      -2.795962      2.164480     -1.978160
  H      -3.387908      1.730614     -0.341303
  H      -3.364056     -2.318818     -1.850511
  H      -5.245000     -1.450192     -3.248342
  H      -2.415226      0.505958     -5.847159
  H      -0.516474     -0.400630     -4.439023
  H       0.645585      0.557726     -1.513799
  H       2.073421      0.524232     -2.613718
  H       3.116015      2.389683     -0.569049
  H       2.090505      4.063605      0.970514
  H       0.744800      3.235454      4.398067
  H       2.020674      4.368078      3.897356
  H       0.490901      4.324995      3.006249
  H       1.698425      1.027315      4.004074
  H       2.679758     -0.656537      2.437495
  H       3.067610     -2.041258     -2.659304
  H       2.047854     -3.062903     -1.578684
  H       2.152817     -3.138834      1.233556
  H       1.717096     -4.742809      0.564567
  H       0.934470     -4.184564      2.073244
  H       0.165181     -2.225639      2.753141
60
Coordinates from ORCA-job file E -2653.294595099217
  C      -1.583686      1.143911      3.867635
  O      -0.918888     -0.042564      3.496353
  C      -0.950257     -0.436638      2.201294
  C      -1.529884      0.323371      1.179777
  C      -1.483048     -0.154905     -0.139380
  O      -1.938994      0.570362     -1.185124
  C      -2.561176      1.816928     -0.976920
  C      -0.923968     -1.412243     -0.429151
  S      -0.498298     -2.022681     -2.101469
  C      -1.855311     -1.390608     -3.098161
  C      -3.161457     -1.741009     -2.747341
  C      -4.225894     -1.308230     -3.534786
  C      -3.965732     -0.538487     -4.674340
  Cl     -5.298562      0.011059     -5.662289
  C      -2.657711     -0.210121     -5.037022
  C      -1.593719     -0.647683     -4.245399
  C       0.956548     -1.313453     -2.704573
  C       1.412005     -0.035038     -1.970659
  N       2.172423     -0.911339     -1.040995
  S       3.594088     -0.438345     -0.277883
  O       4.047468     -1.624780      0.463793
  O       4.517140      0.249930     -1.192626
  C       2.947946      0.777529      0.863455
  C       2.890610      2.118474      0.478127
  C       2.370005      3.055610      1.370129
  C       1.911394      2.671045      2.641920
  C       1.385829      3.703378      3.607554
  C       1.982581      1.315487      2.999200
  C       2.502108      0.366516      2.118793
  C       2.171719     -2.007545     -2.054697
  C      -0.310752     -2.138853      0.616773
  O       0.293316     -3.292505      0.261945
  C       1.329173     -3.815723      1.081211
  C      -0.329745     -1.661339      1.925315
  H      -2.664793      1.091085      3.646098
  H      -1.157609      2.026158      3.360791
  H      -1.446369      1.253895      4.952069
  H      -1.969923      1.293297      1.390349
  H      -1.869734      2.546529     -0.518633
  H      -2.860366      2.178639     -1.969595
  H      -3.459918      1.722596     -0.342320
  H      -3.351812     -2.333831     -1.849254
  H      -5.254397     -1.564862     -3.275806
  H      -2.476543      0.380490     -5.936845
  H      -0.553778     -0.431831     -4.500803
  H       0.661250      0.600580     -1.479491
  H       2.077564      0.594262     -2.591789
  H       3.275587      2.413112     -0.499911
  H       2.324364      4.108458      1.076393
  H       0.924400      3.236585      4.488825
  H       2.202034      4.354138      3.966775
  H       0.639797      4.360043      3.131629
  H       1.623463      0.990271      3.978843
  H       2.569237     -0.683876      2.401701
  H       3.067688     -1.971272     -2.703517
  H       2.063828     -3.018697     -1.638541
  H       2.149966     -3.086678      1.186531
  H       1.705892     -4.705946      0.559993
  H       0.953279     -4.125477      2.070864
  H       0.129621     -2.207177      2.746687
60
Coordinates from ORCA-job file E -2653.294772355974
  C      -1.553060      1.163671      3.855958
  O      -0.903308     -0.033071      3.489939
  C      -0.928350     -0.428238      2.194789
  C      -1.502548      0.330897      1.169385
  C      -1.460828     -0.155698     -0.147010
  O      -1.912982      0.564769     -1.198002
  C      -2.524904      1.818013     -0.998465
  C      -0.914884     -1.419778     -0.430083
  S      -0.501980     -2.043980     -2.097769
  C      -1.853483     -1.392078     -3.089187
  C      -3.162824     -1.730648     -2.739554
  C      -4.223213     -1.276839     -3.520955
  C      -3.956067     -0.497626     -4.652211
  Cl     -5.284677      0.078752     -5.630570
  C      -2.644603     -0.180562     -5.013712
  C      -1.585071     -0.638140     -4.227748
  C       0.955166     -1.345507     -2.705622
  C       1.403124     -0.059419     -1.983792
  N       2.163412     -0.921386     -1.038922
  S       3.586528     -0.429481     -0.287523
  O       4.063739     -1.608961      0.449734
  O       4.486756      0.275844     -1.211636
  C       2.932817      0.773744      0.863126
  C       2.836181      2.112001      0.471942
  C       2.298530      3.038443      1.362814
  C       1.872266      2.649988      2.645582
  C       1.331099      3.679141      3.605809
  C       1.992452      1.301949      3.012233
  C       2.517007      0.359609      2.126368
  C       2.165692     -2.031854     -2.038964
  C      -0.300105     -2.142137      0.618473
  O       0.300126     -3.298667      0.267465
  C       1.333208     -3.822948      1.088213
  C      -0.315351     -1.657813      1.924614
  H      -2.631889      1.128133      3.620840
  H      -1.105962      2.041062      3.358069
  H      -1.427523      1.268221      4.942189
  H      -1.940805      1.302087      1.376389
  H      -1.826556      2.546191     -0.548621
  H      -2.824229      2.173482     -1.993327
  H      -3.422211      1.736023     -0.360114
  H      -3.358821     -2.330012     -1.847112
  H      -5.254201     -1.524198     -3.262891
  H      -2.457757      0.418773     -5.906524
  H      -0.542874     -0.428724     -4.480978
  H       0.648150      0.582594     -1.505571
  H       2.071965      0.561153     -2.609686
  H       3.198523      2.413525     -0.512497
  H       2.221786      4.088316      1.064706
  H       1.000961      3.222414      4.550000
  H       2.100991      4.431055      3.849807
  H       0.479612      4.228306      3.170266
  H       1.664335      0.978166      4.002295
  H       2.617666     -0.687315      2.412524
  H       3.064825     -2.003756     -2.683579
  H       2.054043     -3.037205     -1.609405
  H       2.153863     -3.094287      1.195433
  H       1.711018     -4.713151      0.567915
  H       0.955028     -4.130280      2.078012
  H       0.140200     -2.202566      2.748643
60
Coordinates from ORCA-job file E -2653.294762760483
  C      -1.546509      1.143407      3.866362
  O      -0.899339     -0.053482      3.496651
  C      -0.924571     -0.444110      2.200092
  C      -1.499579      0.318033      1.177410
  C      -1.458566     -0.164721     -0.140490
  O      -1.911925      0.558454     -1.189180
  C      -2.523580      1.811200     -0.985521
  C      -0.912269     -1.427590     -0.427805
  S      -0.500869     -2.047314     -2.097670
  C      -1.850223     -1.386973     -3.086203
  C      -3.160523     -1.726046     -2.740801
  C      -4.219134     -1.264476     -3.520125
  C      -3.949311     -0.476867     -4.644897
  Cl     -5.275795      0.109369     -5.620277
  C      -2.636849     -0.159155     -5.002293
  C      -1.579139     -0.624532     -4.218507
  C       0.957162     -1.349569     -2.704294
  C       1.404498     -0.063779     -1.981774
  N       2.161714     -0.926258     -1.034881
  S       3.583317     -0.435684     -0.279982
  O       4.052228     -1.612387      0.467025
  O       4.490301      0.260095     -1.204676
  C       2.928739      0.777305      0.860101
  C       2.837616      2.112824      0.459214
  C       2.297012      3.047059      1.340545
  C       1.863232      2.669054      2.623496
  C       1.317638      3.704155      3.575161
  C       1.979102      1.323133      3.000587
  C       2.504796      0.373075      2.124121
  C       2.166185     -2.036466     -2.035453
  C      -0.296793     -2.153072      0.618324
  O       0.302880     -3.308763      0.263748
  C       1.333201     -3.837846      1.084755
  C      -0.311951     -1.672956      1.925979
  H      -2.625646      1.110386      3.632285
  H      -1.098510      2.021374      3.369863
  H      -1.419433      1.245270      4.952637
  H      -1.939158      1.287901      1.387803
  H      -1.824956      2.537839     -0.533662
  H      -2.823226      2.169801     -1.979161
  H      -3.420670      1.727400     -0.347090
  H      -3.358686     -2.331644     -1.853091
  H      -5.250863     -1.511991     -3.265205
  H      -2.447848      0.447159     -5.889916
  H      -0.536294     -0.414202     -4.468450
  H       0.649093      0.579311     -1.505810
  H       2.075681      0.555481     -2.606456
  H       3.206086      2.406865     -0.525188
  H       2.225386      4.095074      1.035020
  H       0.933983      3.246464      4.498738
  H       2.100565      4.426714      3.861883
  H       0.501731      4.285531      3.113968
  H       1.647135      1.007622      3.991967
  H       2.601448     -0.672048      2.418035
  H       3.066723     -2.007730     -2.678093
  H       2.053387     -3.041977     -1.606670
  H       2.153780     -3.110101      1.198144
  H       1.712155     -4.725532      0.561026
  H       0.951821     -4.149808      2.071921
  H       0.143622     -2.220281      2.748258
60
Coordinates from ORCA-job file E -2653.294767498292
  C      -1.544372      1.152664      3.862053
  O      -0.899237     -0.045859      3.494113
  C      -0.925423     -0.438452      2.198188
  C      -1.501122      0.322126      1.174724
  C      -1.460570     -0.162459     -0.142518
  O      -1.914876      0.558997     -1.192000
  C      -2.526949      1.811769     -0.989783
  C      -0.913606     -1.425358     -0.428340
  S      -0.501580     -2.046714     -2.097491
  C      -1.851353     -1.388463     -3.087030
  C      -3.161352     -1.729336     -2.742292
  C      -4.220176     -1.269737     -3.522508
  C      -3.950829     -0.482287     -4.647485
  Cl     -5.277566      0.101319     -5.624108
  C      -2.638618     -0.162736     -5.004190
  C      -1.580703     -0.626211     -4.219572
  C       0.956359     -1.348756     -2.705003
  C       1.403927     -0.063021     -1.982380
  N       2.161073     -0.925598     -1.035328
  S       3.583490     -0.435279     -0.281574
  O       4.054180     -1.613033      0.462698
  O       4.488666      0.262563     -1.206430
  C       2.930151      0.775278      0.861846
  C       2.837852      2.111613      0.463905
  C       2.298238      3.043803      1.347976
  C       1.866116      2.662898      2.630600
  C       1.320422      3.695510      3.584900
  C       1.983127      1.316225      3.004743
  C       2.508337      0.368260      2.125673
  C       2.165422     -2.035661     -2.036226
  C      -0.297818     -2.149427      0.618537
  O       0.301893     -3.305595      0.265335
  C       1.334266     -3.832049      1.085539
  C      -0.312828     -1.667655      1.925556
  H      -2.623746      1.120865      3.628866
  H      -1.095445      2.028947      3.363508
  H      -1.416356      1.256404      4.948050
  H      -1.940896      1.292161      1.383928
  H      -1.828505      2.539215     -0.538950
  H      -2.826917      2.169016     -1.983816
  H      -3.423915      1.728461     -0.351110
  H      -3.359181     -2.334916     -1.854493
  H      -5.251696     -1.518740     -3.268183
  H      -2.449975      0.443361     -5.892041
  H      -0.537982     -0.414687     -4.468975
  H       0.648736      0.580379     -1.506613
  H       2.075503      0.555796     -2.607069
  H       3.204773      2.407956     -0.520399
  H       2.225402      4.092390      1.044577
  H       0.959374      3.237712      4.517330
  H       2.096332      4.432366      3.853630
  H       0.487853      4.261060      3.133728
  H       1.652108      0.998267      3.995667
  H       2.605629     -0.677484      2.417156
  H       3.065871     -2.006594     -2.678952
  H       2.052780     -3.041307     -1.607699
  H       2.154645     -3.103546      1.195340
  H       1.712704     -4.720782      0.563211
  H       0.955193     -4.141906      2.074244
  H       0.143167     -2.213734      2.748437
60
Coordinates from ORCA-job file E -2653.294769533290
  C      -1.545062      1.153813      3.861371
  O      -0.900554     -0.045112      3.493653
  C      -0.926318     -0.437615      2.197688
  C      -1.502348      0.322583      1.174143
  C      -1.461517     -0.162209     -0.143041
  O      -1.915974      0.559019     -1.192649
  C      -2.527708      1.811998     -0.990691
  C      -0.914465     -1.425097     -0.428619
  S      -0.502054     -2.046857     -2.097681
  C      -1.851710     -1.389096     -3.087745
  C      -3.161793     -1.729105     -2.742461
  C      -4.220569     -1.270049     -3.523066
  C      -3.951103     -0.484122     -4.649076
  Cl     -5.277745      0.098777     -5.626256
  C      -2.638827     -0.165507     -5.006367
  C      -1.580967     -0.628398     -4.221327
  C       0.956024     -1.348768     -2.705214
  C       1.402939     -0.062822     -1.982435
  N       2.160512     -0.925013     -1.035321
  S       3.583099     -0.434604     -0.282041
  O       4.054348     -1.612438      0.461800
  O       4.487807      0.263433     -1.207214
  C       2.930271      0.775517      0.862108
  C       2.839527      2.112330      0.465654
  C       2.301193      3.044260      1.350834
  C       1.868600      2.662498      2.632958
  C       1.323269      3.694137      3.588492
  C       1.983787      1.315153      3.005535
  C       2.507878      0.367551      2.125487
  C       2.165103     -2.035241     -2.035969
  C      -0.298237     -2.148722      0.618299
  O       0.302130     -3.304545      0.265082
  C       1.334535     -3.830686      1.085479
  C      -0.313135     -1.666624      1.925198
  H      -2.624660      1.122239      3.629151
  H      -1.096323      2.029586      3.361821
  H      -1.416093      1.258275      4.947178
  H      -1.942702      1.292386      1.383172
  H      -1.829123      2.539312     -0.539859
  H      -2.827453      2.169185     -1.984816
  H      -3.424807      1.729043     -0.352154
  H      -3.359749     -2.333568     -1.853930
  H      -5.252142     -1.518387     -3.268300
  H      -2.450073      0.439319     -5.895059
  H      -0.538197     -0.417834     -4.471308
  H       0.647404      0.580315     -1.506809
  H       2.074385      0.556097     -2.607198
  H       3.206774      2.409498     -0.518286
  H       2.229715      4.093292      1.048607
  H       0.977822      3.236884      4.527092
  H       2.093852      4.441033      3.844362
  H       0.479066      4.248025      3.144343
  H       1.652690      0.996383      3.996187
  H       2.603822     -0.678662      2.415715
  H       3.065599     -2.005882     -2.678616
  H       2.052667     -3.040843     -1.607258
  H       2.154470     -3.101753      1.195783
  H       1.713675     -4.719017      0.562978
  H       0.955248     -4.141095      2.073928
  H       0.143201     -2.212272      2.748172
60
Coordinates from ORCA-job file E -2653.294767750424
  C      -1.544408      1.151774      3.862558
  O      -0.901183     -0.047734      3.494558
  C      -0.926683     -0.439485      2.198362
  C      -1.502694      0.321151      1.175146
  C      -1.461640     -0.163016     -0.142280
  O      -1.916171      0.558632     -1.191583
  C      -2.527465      1.811741     -0.989103
  C      -0.914362     -1.425655     -0.428408
  S      -0.501817     -2.046765     -2.097746
  C      -1.851402     -1.388564     -3.087623
  C      -3.161488     -1.728978     -2.742760
  C      -4.220220     -1.269543     -3.523203
  C      -3.950717     -0.482750     -4.648593
  Cl     -5.277302      0.100664     -5.625544
  C      -2.638436     -0.163665     -5.005457
  C      -1.580621     -0.626981     -4.220613
  C       0.956365     -1.348409     -2.705284
  C       1.403252     -0.062724     -1.981954
  N       2.160333     -0.925318     -1.034806
  S       3.582891     -0.435586     -0.281095
  O       4.052778     -1.613326      0.463783
  O       4.488657      0.261012     -1.206313
  C       2.930450      0.775788      0.861953
  C       2.841615      2.112485      0.464916
  C       2.303187      3.045397      1.349096
  C       1.868532      2.664625      2.630722
  C       1.321881      3.696592      3.585165
  C       1.982017      1.317243      3.004032
  C       2.506207      0.368750      2.125083
  C       2.165317     -2.035092     -2.035990
  C      -0.298234     -2.149788      0.618248
  O       0.302207     -3.305415      0.264573
  C       1.334182     -3.832134      1.085158
  C      -0.313327     -1.668312      1.925358
  H      -2.624244      1.121049      3.631285
  H      -1.095431      2.027062      3.362376
  H      -1.414422      1.256414      4.948225
  H      -1.943451      1.290676      1.384596
  H      -1.828725      2.538528     -0.537665
  H      -2.826799      2.169590     -1.983113
  H      -3.424793      1.728797     -0.350882
  H      -3.359505     -2.334092     -1.854685
  H      -5.251792     -1.518221     -3.268766
  H      -2.449637      0.441866     -5.893660
  H      -0.537842     -0.416075     -4.470270
  H       0.647721      0.580484     -1.506462
  H       2.075104      0.556064     -2.606412
  H       3.210285      2.408986     -0.518695
  H       2.233249      4.094382      1.046354
  H       0.978287      3.239747      4.524645
  H       2.090584      4.445979      3.839174
  H       0.475517      4.247343      3.141117
  H       1.649574      0.999187      3.994461
  H       2.600824     -0.677432      2.415828
  H       3.065947     -2.005153     -2.678418
  H       2.052901     -3.040921     -1.607843
  H       2.154038     -3.103266      1.196440
  H       1.713641     -4.720060      0.562200
  H       0.954313     -4.143287      2.073150
  H       0.142956     -2.214259      2.748166
