14
Coordinates from ORCA-job file E -378.924263365464
  C       2.044900      0.267100     -0.179900
  N       2.357700     -1.035500     -0.412700
  O       1.236200     -1.712800     -0.430300
  C       0.243300     -0.890800     -0.218600
  C       0.679600      0.333100     -0.057700
  C      -0.425500      1.271100      0.172700
  N      -1.645400      0.418300      0.133100
  C      -1.215500     -0.983000     -0.121500
  H       2.754900      1.079800     -0.110400
  H      -0.464300      2.025300     -0.641000
  H      -0.309400      1.769300      1.160500
  H      -2.108200      0.457900      1.071800
  H      -1.505600     -1.656800      0.714700
  H      -1.642700     -1.342900     -1.080700
14
Coordinates from ORCA-job file E -378.942082074045
  C       2.094158      0.243953     -0.189208
  N       2.415003     -1.011940     -0.415018
  O       1.244156     -1.726995     -0.431311
  C       0.243872     -0.875212     -0.209126
  C       0.693603      0.379798     -0.047331
  C      -0.453936      1.312864      0.184077
  N      -1.645835      0.403882      0.149298
  C      -1.237152     -1.005076     -0.120254
  H       2.872077      0.993068     -0.139011
  H      -0.530889      2.066046     -0.610033
  H      -0.379270      1.825396      1.151287
  H      -2.104979      0.439400      1.049654
  H      -1.542018     -1.679600      0.689923
  H      -1.668790     -1.365486     -1.062948
14
Coordinates from ORCA-job file E -378.942970281639
  C       2.105138      0.244498     -0.199435
  N       2.430279     -1.010519     -0.436768
  O       1.243435     -1.736372     -0.414384
  C       0.251256     -0.880179     -0.159477
  C       0.701955      0.382729     -0.010439
  C      -0.458887      1.316408      0.192306
  N      -1.640082      0.396610      0.175086
  C      -1.238179     -1.005239     -0.122279
  H       2.898018      0.982095     -0.180938
  H      -0.542401      2.052534     -0.616733
  H      -0.408555      1.863625      1.140255
  H      -2.112859      0.432763      1.068194
  H      -1.588967     -1.696798      0.651397
  H      -1.640152     -1.342056     -1.086784
14
Coordinates from ORCA-job file E -378.942858288089
  C       2.113415      0.241096     -0.182222
  N       2.445063     -1.013536     -0.406833
  O       1.237956     -1.736543     -0.450592
  C       0.247974     -0.869498     -0.218904
  C       0.700760      0.391297     -0.039242
  C      -0.464816      1.321945      0.174699
  N      -1.635177      0.391184      0.196146
  C      -1.241389     -1.006641     -0.122604
  H       2.917709      0.965968     -0.121118
  H      -0.570423      2.054990     -0.633725
  H      -0.408265      1.879947      1.116615
  H      -2.099986      0.429606      1.093439
  H      -1.556826     -1.707064      0.660682
  H      -1.685995     -1.342652     -1.066341
14
Coordinates from ORCA-job file E -378.943040131429
  C       2.106254      0.243425     -0.188034
  N       2.433461     -1.013730     -0.414742
  O       1.242812     -1.735875     -0.417954
  C       0.247712     -0.875090     -0.192058
  C       0.699018      0.386883     -0.035325
  C      -0.461720      1.318327      0.180752
  N      -1.637846      0.393309      0.193824
  C      -1.240817     -1.003871     -0.127046
  H       2.902211      0.976907     -0.147871
  H      -0.564676      2.048239     -0.631781
  H      -0.396548      1.873480      1.122753
  H      -2.093126      0.424448      1.096089
  H      -1.571342     -1.704826      0.646566
  H      -1.665393     -1.331524     -1.085172
14
Coordinates from ORCA-job file E -378.943081371851
  C       2.106969      0.242375     -0.188473
  N       2.438803     -1.010799     -0.409344
  O       1.241393     -1.739457     -0.421286
  C       0.248266     -0.876724     -0.195698
  C       0.698100      0.385857     -0.039148
  C      -0.462348      1.318080      0.178257
  N      -1.636434      0.392386      0.199786
  C      -1.241421     -1.003931     -0.125443
  H       2.900497      0.979043     -0.143645
  H      -0.565199      2.045825     -0.636156
  H      -0.396599      1.876554      1.119740
  H      -2.090790      0.424852      1.101933
  H      -1.574673     -1.709741      0.644697
  H      -1.666565     -1.324221     -1.085220
14
Coordinates from ORCA-job file E -378.943090410643
  C       2.106799      0.242292     -0.184649
  N       2.437916     -1.012365     -0.407949
  O       1.240040     -1.737980     -0.424585
  C       0.247602     -0.875300     -0.198008
  C       0.698379      0.386287     -0.037132
  C      -0.462865      1.318190      0.177434
  N      -1.636970      0.392176      0.202632
  C      -1.241675     -1.003136     -0.126878
  H       2.900932      0.977982     -0.140023
  H      -0.567684      2.041194     -0.641008
  H      -0.396993      1.881627      1.115261
  H      -2.084461      0.421678      1.108619
  H      -1.572860     -1.710169      0.642595
  H      -1.668160     -1.322377     -1.086308
14
Coordinates from ORCA-job file E -378.943095449728
  C       2.106292      0.242395     -0.183507
  N       2.437589     -1.013013     -0.404650
  O       1.239892     -1.738236     -0.420698
  C       0.247179     -0.875047     -0.197862
  C       0.697884      0.386797     -0.038878
  C      -0.463902      1.318323      0.175160
  N      -1.637301      0.391504      0.208124
  C      -1.242288     -1.002150     -0.128640
  H       2.900840      0.977483     -0.138223
  H      -0.572159      2.037542     -0.646074
  H      -0.396251      1.886000      1.110085
  H      -2.074451      0.416903      1.119463
  H      -1.575519     -1.712768      0.636175
  H      -1.667804     -1.315633     -1.090475
14
Coordinates from ORCA-job file E -378.943103912747
  C       2.103895      0.241919     -0.172939
  N       2.436259     -1.015719     -0.383639
  O       1.238657     -1.739210     -0.406400
  C       0.244346     -0.873726     -0.201719
  C       0.694827      0.388949     -0.047549
  C      -0.470329      1.318715      0.161483
  N      -1.638488      0.387557      0.241373
  C      -1.246589     -0.995912     -0.138784
  H       2.899733      0.975035     -0.122375
  H      -0.598233      2.012689     -0.678351
  H      -0.393954      1.914171      1.077318
  H      -2.010735      0.388224      1.182051
  H      -1.588837     -1.726508      0.601254
  H      -1.670552     -1.276083     -1.111724
14
Coordinates from ORCA-job file E -378.943112488126
  C       2.104690      0.241713     -0.174918
  N       2.436931     -1.014867     -0.387800
  O       1.238939     -1.739197     -0.410631
  C       0.244949     -0.874197     -0.201279
  C       0.695421      0.388290     -0.045197
  C      -0.469179      1.318656      0.164147
  N      -1.638841      0.388698      0.234135
  C      -1.245935     -0.997202     -0.136573
  H       2.899847      0.975826     -0.124886
  H      -0.592235      2.017237     -0.672606
  H      -0.395400      1.909130      1.083875
  H      -2.022305      0.393657      1.170120
  H      -1.586541     -1.723814      0.608892
  H      -1.670342     -1.283830     -1.107279
14
Coordinates from ORCA-job file E -378.943115346925
  C       2.105062      0.241180     -0.172798
  N       2.437294     -1.015011     -0.384816
  O       1.238620     -1.739389     -0.411711
  C       0.244556     -0.873983     -0.203059
  C       0.695077      0.388483     -0.045629
  C      -0.470244      1.318842      0.162233
  N      -1.639248      0.388422      0.237734
  C      -1.246753     -0.996459     -0.137667
  H       2.900040      0.975611     -0.121480
  H      -0.594875      2.013971     -0.677216
  H      -0.396761      1.913153      1.079644
  H      -2.012900      0.389897      1.177644
  H      -1.587764     -1.725098      0.605993
  H      -1.672103     -1.279519     -1.108873
14
Coordinates from ORCA-job file E -378.943117336085
  C       2.105150      0.241349     -0.174117
  N       2.437318     -1.014768     -0.386837
  O       1.238830     -1.739397     -0.411851
  C       0.244867     -0.874257     -0.201706
  C       0.695329      0.388242     -0.044699
  C      -0.469659      1.318764      0.163452
  N      -1.638959      0.388606      0.235344
  C      -1.246320     -0.996979     -0.136877
  H       2.900018      0.975934     -0.123848
  H      -0.592702      2.016115     -0.674420
  H      -0.396652      1.910637      1.082486
  H      -2.018888      0.392467      1.172635
  H      -1.587350     -1.724190      0.608170
  H      -1.670981     -1.282423     -1.107734
