14
Coordinates from ORCA-job file
  C   2.10515032426699      0.24134944642796     -0.17411659762735
  N   2.43731844264539     -1.01476766633324     -0.38683666071275
  O   1.23883025270608     -1.73939738313654     -0.41185096160641
  C   0.24486674420645     -0.87425719637443     -0.20170564113967
  C   0.69532857028048      0.38824172818642     -0.04469914001705
  C   -0.46965884290298      1.31876396666424      0.16345213688232
  N   -1.63895941313467      0.38860596880391      0.23534379629058
  C   -1.24631998370419     -0.99697937972695     -0.13687700862282
  H   2.90001757525199      0.97593428375715     -0.12384798491144
  H   -0.59270211227409      2.01611482605168     -0.67441996939045
  H   -0.39665198876483      1.91063725671575      1.08248643297674
  H   -2.01888797694370      0.39246722548194      1.17263520139151
  H   -1.58735012559678     -1.72419023987130      0.60817008880405
  H   -1.67098146603614     -1.28242283664658     -1.10773369231727
