60
Coordinates from ORCA-job file E -2653.391393364925
  C      -5.501000      0.738100      3.313000
  O      -4.577400     -0.338000      3.183000
  C      -3.686100     -0.495500      2.110500
  C      -3.623800      0.416000      1.042200
  C      -2.713500      0.220900     -0.013200
  O      -2.616400      1.125000     -1.083100
  C      -3.409800      2.297700     -1.230200
  C      -1.869100     -0.903000      0.004100
  S      -0.723100     -1.174500     -1.305700
  C      -1.446200     -1.845000     -2.756000
  C      -1.268700     -3.201700     -3.052900
  C      -1.840200     -3.747700     -4.206500
  C      -2.588300     -2.937900     -5.068600
  Cl     -3.304600     -3.622600     -6.515900
  C      -2.761600     -1.580300     -4.776000
  C      -2.190500     -1.033800     -3.622500
  C       0.394900      0.188800     -1.603200
  C       1.291600      0.443700     -0.403000
  N       2.497700     -0.015600     -1.101300
  S       3.600800      1.311000     -1.384500
  O       4.679300      0.869800     -2.333900
  O       2.881800      2.487200     -1.989300
  C       4.336300      1.782100      0.144500
  C       3.880800      2.913300      0.835800
  C       4.458000      3.270500      2.058100
  C       5.485300      2.490100      2.610300
  C       6.131300      2.894000      3.902300
  C       5.947300      1.364600      1.910900
  C       5.369300      1.008200      0.688800
  C       1.671000     -0.276200     -2.285300
  C      -1.919500     -1.815500      1.070500
  O      -1.052300     -2.920800      1.056500
  C      -0.997500     -3.919000      2.070100
  C      -2.833400     -1.602000      2.118100
  H      -6.210300      0.738100      2.458500
  H      -4.956700      1.705100      3.359200
  H      -6.076900      0.609900      4.252300
  H      -4.277600      1.275000      1.034600
  H      -3.236200      2.985900     -0.376100
  H      -3.119500      2.815000     -2.167400
  H      -4.484600      2.026000     -1.292900
  H      -0.691600     -3.834700     -2.390400
  H      -1.701200     -4.797900     -4.429000
  H      -3.335200     -0.948300     -5.442000
  H      -2.320700      0.019100     -3.413800
  H       1.077300     -0.206300      0.474000
  H       1.298000      1.520800     -0.124900
  H       3.080100      3.519300      0.431800
  H       4.101800      4.153300      2.574700
  H       6.489100      2.000300      4.456700
  H       6.994500      3.559100      3.691100
  H       5.408600      3.433400      4.551000
  H       6.752200      0.761700      2.312900
  H       5.727200      0.129600      0.167100
  H       1.914000      0.356400     -3.167800
  H       1.682900     -1.359100     -2.539200
  H      -0.723000     -3.460100      3.043300
  H      -0.224400     -4.667100      1.799800
  H      -1.977600     -4.434500      2.151600
  H      -2.892600     -2.291900      2.948800
60
Coordinates from ORCA-job file E -2653.429207160369
  C      -5.412530      0.733853      3.194637
  O      -4.508367     -0.348258      3.146040
  C      -3.641582     -0.499559      2.103320
  C      -3.598508      0.398510      1.029931
  C      -2.686443      0.191951     -0.010668
  O      -2.597146      1.041642     -1.070306
  C      -3.424856      2.177633     -1.181844
  C      -1.823333     -0.914512      0.018653
  S      -0.663735     -1.193070     -1.275242
  C      -1.415265     -1.827623     -2.731344
  C      -1.240986     -3.176074     -3.047730
  C      -1.822655     -3.699184     -4.201919
  C      -2.573991     -2.869526     -5.036698
  Cl     -3.299644     -3.523778     -6.480895
  C      -2.745444     -1.518732     -4.725653
  C      -2.163637     -0.996331     -3.571820
  C       0.400778      0.203044     -1.602186
  C       1.295820      0.481947     -0.393970
  N       2.503913      0.033305     -1.126722
  S       3.578266      1.343805     -1.441362
  O       4.642897      0.872739     -2.358966
  O       2.846650      2.514598     -1.992206
  C       4.294911      1.778855      0.106862
  C       3.834413      2.896524      0.804029
  C       4.398626      3.223751      2.036711
  C       5.413352      2.429727      2.588703
  C       6.046985      2.804978      3.900504
  C       5.873255      1.315536      1.872369
  C       5.312222      0.985935      0.640003
  C       1.671298     -0.258499     -2.315657
  C      -1.870492     -1.807160      1.100703
  O      -1.012518     -2.866633      1.103327
  C      -1.005223     -3.799198      2.161888
  C      -2.781012     -1.596194      2.139439
  H      -6.099463      0.705062      2.329092
  H      -4.866896      1.695014      3.211799
  H      -6.000485      0.641674      4.119699
  H      -4.267988      1.253394      1.006181
  H      -3.253471      2.866134     -0.334802
  H      -3.161639      2.692988     -2.117067
  H      -4.489281      1.881387     -1.221226
  H      -0.654036     -3.819803     -2.395618
  H      -1.689088     -4.749430     -4.449402
  H      -3.327046     -0.875137     -5.381498
  H      -2.283545      0.058576     -3.335012
  H       1.112477     -0.159271      0.494037
  H       1.295163      1.553539     -0.114362
  H       3.039358      3.513871      0.390032
  H       4.040724      4.102867      2.569222
  H       6.392022      1.906989      4.440321
  H       6.913947      3.464535      3.720246
  H       5.327828      3.335398      4.547161
  H       6.672584      0.697025      2.276000
  H       5.668635      0.113013      0.096299
  H       1.906238      0.359708     -3.202108
  H       1.707741     -1.339600     -2.565083
  H      -0.755082     -3.301194      3.116163
  H      -0.235056     -4.552629      1.940610
  H      -1.986014     -4.302072      2.243445
  H      -2.833645     -2.276042      2.985442
60
Coordinates from ORCA-job file E -2653.447390449865
  C      -5.366085      0.733136      3.123511
  O      -4.453944     -0.335144      3.128888
  C      -3.607275     -0.483048      2.100215
  C      -3.588215      0.387758      1.004161
  C      -2.669791      0.164004     -0.026656
  O      -2.590429      0.950560     -1.100369
  C      -3.443598      2.057879     -1.228177
  C      -1.778536     -0.923026      0.033493
  S      -0.596499     -1.224088     -1.233536
  C      -1.383721     -1.814560     -2.699329
  C      -1.220548     -3.157323     -3.034152
  C      -1.814259     -3.657091     -4.190729
  C      -2.562442     -2.804309     -5.001125
  Cl     -3.300081     -3.426123     -6.444348
  C      -2.722879     -1.457037     -4.672509
  C      -2.128211     -0.959558     -3.516918
  C       0.389076      0.216391     -1.599615
  C       1.284555      0.529778     -0.390717
  N       2.497163      0.109370     -1.154678
  S       3.540555      1.402051     -1.495241
  O       4.584705      0.899266     -2.383603
  O       2.804114      2.572244     -1.980820
  C       4.243765      1.785598      0.076276
  C       3.791037      2.889731      0.792357
  C       4.350923      3.169590      2.037053
  C       5.348223      2.347434      2.576371
  C       5.976970      2.675048      3.905991
  C       5.793166      1.246688      1.831513
  C       5.241746      0.959544      0.587312
  C       1.656409     -0.227030     -2.340374
  C      -1.812721     -1.787369      1.144845
  O      -0.941432     -2.802621      1.166325
  C      -0.937108     -3.686278      2.258636
  C      -2.727229     -1.565247      2.174917
  H      -6.047594      0.667285      2.259227
  H      -4.838597      1.701188      3.106850
  H      -5.951207      0.661057      4.047060
  H      -4.275027      1.226754      0.953770
  H      -3.281141      2.775768     -0.408131
  H      -3.193053      2.542021     -2.178394
  H      -4.500811      1.744257     -1.246795
  H      -0.630156     -3.811639     -2.391639
  H      -1.693492     -4.705154     -4.462137
  H      -3.305349     -0.801864     -5.319571
  H      -2.226951      0.093690     -3.253197
  H       1.145459     -0.103114      0.508219
  H       1.267215      1.596279     -0.108664
  H       3.009648      3.527749      0.377144
  H       4.003596      4.040487      2.595197
  H       6.304830      1.761914      4.422504
  H       6.854879      3.323342      3.758631
  H       5.266284      3.199480      4.560008
  H       6.580425      0.603552      2.227881
  H       5.584636      0.098231      0.012424
  H       1.875898      0.376707     -3.235629
  H       1.732203     -1.305429     -2.581984
  H      -0.708026     -3.153475      3.195831
  H      -0.152398     -4.426489      2.067103
  H      -1.906164     -4.203194      2.352831
  H      -2.772510     -2.215618      3.043990
60
Coordinates from ORCA-job file E -2653.455710997411
  C      -5.382098      0.736850      3.073762
  O      -4.443494     -0.307223      3.114019
  C      -3.599724     -0.466814      2.086692
  C      -3.599393      0.362814      0.958844
  C      -2.672883      0.117666     -0.062148
  O      -2.610594      0.851915     -1.169613
  C      -3.479832      1.940386     -1.343896
  C      -1.753425     -0.946890      0.042393
  S      -0.534321     -1.283199     -1.184347
  C      -1.355120     -1.817560     -2.664646
  C      -1.228853     -3.160665     -3.011978
  C      -1.833192     -3.631923     -4.175083
  C      -2.551874     -2.746791     -4.975719
  Cl     -3.302498     -3.330097     -6.425255
  C      -2.672034     -1.397456     -4.636917
  C      -2.065971     -0.929265     -3.475462
  C       0.351492      0.211237     -1.583047
  C       1.246915      0.567968     -0.379573
  N       2.467843      0.202018     -1.166646
  S       3.480935      1.497543     -1.514431
  O       4.507977      0.991378     -2.407155
  O       2.728764      2.675398     -1.925342
  C       4.198747      1.818590      0.070267
  C       3.770930      2.903052      0.828720
  C       4.353688      3.125342      2.074822
  C       5.346909      2.271423      2.569248
  C       5.999613      2.539423      3.901089
  C       5.761100      1.191222      1.778387
  C       5.191051      0.958317      0.532272
  C       1.626272     -0.184981     -2.343712
  C      -1.775566     -1.771910      1.188793
  O      -0.877591     -2.759513      1.243510
  C      -0.851271     -3.600263      2.369090
  C      -2.697970     -1.529450      2.206106
  H      -6.066726      0.626832      2.217893
  H      -4.883192      1.717406      3.020014
  H      -5.957477      0.678501      4.002976
  H      -4.304456      1.183249      0.873592
  H      -3.325428      2.700765     -0.563086
  H      -3.234309      2.377031     -2.316998
  H      -4.532883      1.616711     -1.342843
  H      -0.657744     -3.835134     -2.371250
  H      -1.744803     -4.679921     -4.461686
  H      -3.231640     -0.721927     -5.284423
  H      -2.120413      0.123468     -3.197606
  H       1.161440     -0.062210      0.526488
  H       1.197980      1.630305     -0.091351
  H       2.996989      3.566974      0.438984
  H       4.029966      3.980224      2.672791
  H       6.323019      1.605247      4.378697
  H       6.885902      3.178276      3.769373
  H       5.310033      3.052235      4.584149
  H       6.543366      0.521664      2.142860
  H       5.509419      0.117068     -0.086277
  H       1.821231      0.415146     -3.245808
  H       1.760909     -1.257046     -2.582947
  H      -0.635632     -3.030326      3.285981
  H      -0.047836     -4.323498      2.198750
  H      -1.804846     -4.138147      2.487098
  H      -2.737402     -2.141433      3.103083
60
Coordinates from ORCA-job file E -2653.460071053056
  C      -5.336430      0.755147      3.123423
  O      -4.378053     -0.271311      3.160529
  C      -3.565513     -0.438387      2.108264
  C      -3.609148      0.364984      0.964342
  C      -2.706340      0.113016     -0.078072
  O      -2.697554      0.829713     -1.196168
  C      -3.579281      1.912461     -1.345635
  C      -1.762088     -0.934410      0.023236
  S      -0.516171     -1.305000     -1.180563
  C      -1.331740     -1.827174     -2.683142
  C      -1.273316     -3.189555     -2.970509
  C      -1.854893     -3.675859     -4.139220
  C      -2.478389     -2.782520     -5.006170
  Cl     -3.201571     -3.380543     -6.463121
  C      -2.520396     -1.413342     -4.733315
  C      -1.937044     -0.930833     -3.566057
  C       0.302655      0.219018     -1.612041
  C       1.183786      0.623708     -0.407594
  N       2.418103      0.284669     -1.186943
  S       3.433494      1.565527     -1.532636
  O       4.448303      1.037769     -2.422210
  O       2.691040      2.759820     -1.898910
  C       4.152108      1.835290      0.069085
  C       3.754505      2.914757      0.849983
  C       4.341365      3.087813      2.102579
  C       5.309483      2.196015      2.578179
  C       5.965863      2.411461      3.917544
  C       5.690949      1.122007      1.762630
  C       5.119144      0.934952      0.509763
  C       1.594598     -0.153843     -2.362690
  C      -1.747382     -1.733726      1.192252
  O      -0.827661     -2.702864      1.243474
  C      -0.752459     -3.509154      2.392913
  C      -2.645693     -1.485574      2.226940
  H      -6.048384      0.611771      2.295531
  H      -4.860776      1.743680      3.025592
  H      -5.877127      0.709268      4.073652
  H      -4.328983      1.172978      0.879364
  H      -3.396150      2.684678     -0.583269
  H      -3.373352      2.334821     -2.334313
  H      -4.630284      1.587564     -1.295872
  H      -0.772866     -3.866189     -2.274649
  H      -1.823202     -4.738188     -4.382068
  H      -3.000111     -0.736845     -5.441357
  H      -1.911748      0.132733     -3.337581
  H       1.126660      0.013618      0.513439
  H       1.115705      1.687803     -0.130521
  H       3.004256      3.609235      0.467212
  H       4.043151      3.936600      2.723001
  H       6.263882      1.457992      4.372479
  H       6.871706      3.026609      3.807743
  H       5.292349      2.929509      4.612221
  H       6.451019      0.420963      2.116195
  H       5.410617      0.102547     -0.133581
  H       1.789497      0.431034     -3.275005
  H       1.779114     -1.221092     -2.586594
  H      -0.516159     -2.910945      3.286048
  H       0.055883     -4.224073      2.213159
  H      -1.692919     -4.056374      2.559650
  H      -2.656048     -2.073730      3.140888
60
Coordinates from ORCA-job file E -2653.463068882097
  C      -5.251414      0.812509      3.116976
  O      -4.271828     -0.193565      3.184442
  C      -3.487121     -0.414424      2.115096
  C      -3.579897      0.314829      0.926725
  C      -2.702978      0.019433     -0.127861
  O      -2.756142      0.660715     -1.295832
  C      -3.662046      1.718234     -1.484992
  C      -1.734192     -0.996060      0.009104
  S      -0.482092     -1.398235     -1.183755
  C      -1.341479     -1.834731     -2.694911
  C      -1.396890     -3.193624     -3.002690
  C      -2.008661     -3.610674     -4.183100
  C      -2.544716     -2.651659     -5.039932
  Cl     -3.305659     -3.160512     -6.513935
  C      -2.468726     -1.288084     -4.744438
  C      -1.856580     -0.875129     -3.565292
  C       0.279891      0.157166     -1.619926
  C       1.147916      0.601590     -0.419585
  N       2.391965      0.299884     -1.189920
  S       3.403443      1.589663     -1.517717
  O       4.419248      1.079772     -2.424192
  O       2.652480      2.791456     -1.857951
  C       4.123998      1.837510      0.091884
  C       3.726874      2.908554      0.884772
  C       4.304810      3.062807      2.144214
  C       5.268416      2.163339      2.613462
  C       5.913338      2.356803      3.960715
  C       5.651638      1.098106      1.786314
  C       5.088209      0.929100      0.526371
  C       1.590047     -0.171597     -2.365286
  C      -1.675983     -1.729997      1.220380
  O      -0.732601     -2.682288      1.304488
  C      -0.600725     -3.409776      2.502198
  C      -2.547172     -1.439221      2.265715
  H      -5.989217      0.603159      2.325562
  H      -4.799643      1.801797      2.938593
  H      -5.758805      0.818313      4.087547
  H      -4.319981      1.100772      0.813134
  H      -3.466417      2.541764     -0.780480
  H      -3.499509      2.078203     -2.506663
  H      -4.704955      1.380402     -1.376346
  H      -0.961522     -3.920731     -2.314474
  H      -2.066622     -4.666626     -4.445928
  H      -2.878626     -0.562864     -5.447400
  H      -1.730742      0.178366     -3.314141
  H       1.114981      0.001770      0.509609
  H       1.052186      1.666556     -0.149156
  H       2.982409      3.609284      0.504003
  H       4.003994      3.902350      2.775016
  H       6.206855      1.395438      4.403927
  H       6.822831      2.971013      3.869531
  H       5.235860      2.868095      4.657942
  H       6.405302      0.390185      2.138358
  H       5.379837      0.105443     -0.126947
  H       1.773264      0.417264     -3.279106
  H       1.821543     -1.229786     -2.590109
  H      -0.342547     -2.748799      3.344512
  H       0.212817     -4.124295      2.339814
  H      -1.526068     -3.957564      2.740023
  H      -2.522597     -1.971405      3.213139
60
Coordinates from ORCA-job file E -2653.465396097380
  C      -5.115200      0.851388      3.170744
  O      -4.131838     -0.151064      3.227655
  C      -3.385010     -0.396040      2.137111
  C      -3.532778      0.292349      0.930385
  C      -2.694524     -0.027126     -0.149167
  O      -2.809715      0.562100     -1.340160
  C      -3.734629      1.602093     -1.531034
  C      -1.707456     -1.020600     -0.015440
  S      -0.482991     -1.427919     -1.235528
  C      -1.373415     -1.832405     -2.741435
  C      -1.576969     -3.186665     -3.003985
  C      -2.214296     -3.572949     -4.181233
  C      -2.622462     -2.589086     -5.080062
  Cl     -3.413816     -3.059102     -6.551632
  C      -2.391923     -1.233978     -4.830497
  C      -1.756323     -0.851332     -3.653555
  C       0.283059      0.131895     -1.667205
  C       1.123206      0.606643     -0.459191
  N       2.381964      0.296118     -1.195349
  S       3.417957      1.567666     -1.509265
  O       4.441551      1.041279     -2.398335
  O       2.689311      2.778908     -1.868494
  C       4.107455      1.818570      0.114208
  C       3.706523      2.906542      0.881318
  C       4.244777      3.065440      2.157179
  C       5.176877      2.155173      2.666621
  C       5.777135      2.350620      4.033811
  C       5.567445      1.073380      1.863899
  C       5.042175      0.899226      0.588238
  C       1.613406     -0.194338     -2.382326
  C      -1.593401     -1.715947      1.213656
  O      -0.633661     -2.653046      1.288231
  C      -0.445547     -3.346001      2.498449
  C      -2.428013     -1.406262      2.282725
  H      -5.876991      0.625350      2.407021
  H      -4.671276      1.837536      2.959080
  H      -5.591955      0.875905      4.156231
  H      -4.289532      1.062205      0.818438
  H      -3.519476      2.452894     -0.865843
  H      -3.620600      1.924991     -2.571326
  H      -4.767735      1.256942     -1.366227
  H      -1.238248     -3.934086     -2.283800
  H      -2.387580     -4.623861     -4.411633
  H      -2.700485     -0.493213     -5.568204
  H      -1.503402      0.188080     -3.433028
  H       1.073926      0.030163      0.483887
  H       1.018153      1.677184     -0.214650
  H       2.987508      3.615193      0.467524
  H       3.937205      3.916391      2.769124
  H       6.038473      1.389021      4.495964
  H       6.700098      2.948000      3.970221
  H       5.085036      2.880926      4.701762
  H       6.295250      0.356180      2.249779
  H       5.338968      0.062714     -0.046290
  H       1.812492      0.387965     -3.297372
  H       1.860291     -1.251327     -2.595957
  H      -0.168260     -2.658622      3.313094
  H       0.372992     -4.051768      2.324246
  H      -1.351906     -3.902021      2.784933
  H      -2.361818     -1.908273      3.244187
60
Coordinates from ORCA-job file E -2653.467409706152
  C      -5.052071      0.864298      3.147035
  O      -4.063697     -0.131638      3.216830
  C      -3.326012     -0.397399      2.126070
  C      -3.502642      0.251795      0.901745
  C      -2.679981     -0.092411     -0.181932
  O      -2.819559      0.448690     -1.392663
  C      -3.742109      1.486258     -1.602797
  C      -1.678634     -1.063554     -0.031697
  S      -0.482343     -1.465245     -1.276828
  C      -1.412127     -1.847162     -2.769098
  C      -1.744880     -3.181477     -2.996238
  C      -2.418222     -3.532389     -4.164153
  C      -2.727345     -2.535936     -5.089020
  Cl     -3.561193     -2.964370     -6.550772
  C      -2.364580     -1.204617     -4.873793
  C      -1.696104     -0.856164     -3.703925
  C       0.277417      0.109084     -1.689922
  C       1.080216      0.625202     -0.475181
  N       2.356774      0.323015     -1.175676
  S       3.403629      1.590697     -1.466069
  O       4.422090      1.073890     -2.367114
  O       2.686617      2.813260     -1.816866
  C       4.096399      1.825210      0.156333
  C       3.707477      2.919856      0.920242
  C       4.242829      3.074741      2.197665
  C       5.162959      2.153681      2.709939
  C       5.760692      2.343554      4.078781
  C       5.541621      1.064781      1.910631
  C       5.018096      0.895446      0.633892
  C       1.631718     -0.187574     -2.375902
  C      -1.526300     -1.714810      1.214297
  O      -0.549488     -2.632165      1.297514
  C      -0.337020     -3.300652      2.516494
  C      -2.349277     -1.388003      2.287513
  H      -5.818411      0.619758      2.393614
  H      -4.612485      1.847127      2.912061
  H      -5.521898      0.908587      4.134951
  H      -4.273396      1.005809      0.776815
  H      -3.505841      2.359261     -0.974544
  H      -3.652683      1.769120     -2.656943
  H      -4.772905      1.152555     -1.402398
  H      -1.476491     -3.941803     -2.260015
  H      -2.693673     -4.566648     -4.368988
  H      -2.602690     -0.455751     -5.629222
  H      -1.346584      0.159974     -3.494119
  H       1.015643      0.072582      0.480952
  H       0.947582      1.699663     -0.262106
  H       2.999183      3.636973      0.502422
  H       3.943437      3.930350      2.806915
  H       6.007005      1.379485      4.543857
  H       6.691903      2.928376      4.017671
  H       5.073329      2.884896      4.742646
  H       6.260094      0.340178      2.299759
  H       5.308028      0.054632      0.001527
  H       1.832861      0.400697     -3.287195
  H       1.904963     -1.238230     -2.588141
  H      -0.072707     -2.593225      3.318166
  H       0.497177     -3.989424      2.348675
  H      -1.227777     -3.874657      2.817096
  H      -2.258615     -1.858177      3.262709
60
Coordinates from ORCA-job file E -2653.468893658842
  C      -4.850105      0.904688      3.191091
  O      -3.858057     -0.088734      3.243075
  C      -3.167881     -0.383666      2.128899
  C      -3.400717      0.229437      0.895112
  C      -2.624840     -0.145810     -0.212755
  O      -2.817176      0.357036     -1.431667
  C      -3.729857      1.406053     -1.628576
  C      -1.614406     -1.111998     -0.075437
  S      -0.475321     -1.535638     -1.364547
  C      -1.479684     -1.856125     -2.829858
  C      -1.946157     -3.152827     -3.032031
  C      -2.671578     -3.446481     -4.184538
  C      -2.894027     -2.434352     -5.117757
  Cl     -3.785413     -2.795368     -6.563748
  C      -2.399580     -1.143264     -4.924989
  C      -1.683114     -0.850575     -3.768271
  C       0.308201      0.029977     -1.768957
  C       1.052296      0.592338     -0.538853
  N       2.357124      0.270989     -1.172263
  S       3.435977      1.511107     -1.444265
  O       4.483782      0.950046     -2.280926
  O       2.759017      2.734611     -1.861989
  C       4.055379      1.784134      0.200681
  C       3.654649      2.914388      0.904761
  C       4.131976      3.105165      2.200504
  C       5.005871      2.184525      2.789041
  C       5.542440      2.412719      4.177394
  C       5.396471      1.058592      2.048995
  C       4.930734      0.852810      0.755410
  C       1.692793     -0.273207     -2.389727
  C      -1.401950     -1.722451      1.180844
  O      -0.412946     -2.627041      1.245741
  C      -0.137917     -3.256136      2.473039
  C      -2.178490     -1.365019      2.278390
  H      -5.651610      0.638313      2.483424
  H      -4.422996      1.879532      2.905203
  H      -5.271856      0.979519      4.198660
  H      -4.177863      0.978895      0.780960
  H      -3.442597      2.293864     -1.043914
  H      -3.691681      1.650788     -2.695384
  H      -4.755227      1.101602     -1.364581
  H      -1.739994     -3.929775     -2.292496
  H      -3.050021     -4.450650     -4.374421
  H      -2.575357     -0.382913     -5.686469
  H      -1.241452      0.130018     -3.557497
  H       0.942112      0.080860      0.435336
  H       0.906171      1.674197     -0.378380
  H       2.983019      3.628949      0.426654
  H       3.823097      3.988564      2.763759
  H       5.742318      1.462061      4.689772
  H       6.489720      2.973205      4.140281
  H       4.838391      2.995586      4.786197
  H       6.080156      0.335091      2.498420
  H       5.232127     -0.016337      0.168209
  H       1.926446      0.299218     -3.303536
  H       1.980055     -1.325193     -2.572930
  H       0.152109     -2.522154      3.241048
  H       0.696533     -3.940107      2.287902
  H      -1.007495     -3.830969      2.829656
  H      -2.041596     -1.802085      3.263799
60
Coordinates from ORCA-job file E -2653.470105121669
  C      -4.752076      0.909566      3.188088
  O      -3.724964     -0.047640      3.236779
  C      -3.071298     -0.363976      2.107229
  C      -3.371737      0.196073      0.862355
  C      -2.623552     -0.193926     -0.259327
  O      -2.873633      0.259436     -1.485849
  C      -3.821684      1.276757     -1.683629
  C      -1.578347     -1.128337     -0.124618
  S      -0.479373     -1.552726     -1.445465
  C      -1.536490     -1.851781     -2.885559
  C      -2.100142     -3.114623     -3.040804
  C      -2.865391     -3.383158     -4.173740
  C      -3.025983     -2.383785     -5.133543
  Cl     -3.965411     -2.715546     -6.555519
  C      -2.438034     -1.127263     -4.984374
  C      -1.685391     -0.858113     -3.845563
  C       0.330428      0.000071     -1.835068
  C       1.010861      0.605150     -0.589363
  N       2.344595      0.263633     -1.148406
  S       3.460057      1.475994     -1.384197
  O       4.522258      0.880986     -2.174592
  O       2.832063      2.713250     -1.830861
  C       4.033912      1.747137      0.274830
  C       3.658403      2.904126      0.949287
  C       4.119113      3.102488      2.250168
  C       4.949987      2.163340      2.871481
  C       5.476175      2.402817      4.262091
  C       5.310833      1.008620      2.161900
  C       4.862025      0.794712      0.864133
  C       1.742955     -0.302996     -2.386826
  C      -1.300215     -1.685669      1.142011
  O      -0.278739     -2.551457      1.197054
  C       0.077390     -3.109457      2.437830
  C      -2.045037     -1.307563      2.254709
  H      -5.577313      0.582823      2.535660
  H      -4.373726      1.882172      2.834199
  H      -5.126521      1.020168      4.210847
  H      -4.174097      0.919179      0.751744
  H      -3.539507      2.189746     -1.136847
  H      -3.825835      1.486189     -2.758526
  H      -4.829494      0.955069     -1.377462
  H      -1.944128     -3.884750     -2.281097
  H      -3.323160     -4.360291     -4.328110
  H      -2.572241     -0.375775     -5.763622
  H      -1.184114      0.097584     -3.649343
  H       0.846358      0.133282      0.396303
  H       0.855574      1.692423     -0.482317
  H       3.023491      3.633179      0.443453
  H       3.833319      4.007697      2.790794
  H       5.632827      1.457699      4.798423
  H       6.444258      2.926099      4.224818
  H       4.787449      3.026189      4.847199
  H       5.963221      0.271769      2.636075
  H       5.146474     -0.093946      0.297825
  H       2.010578      0.260931     -3.296330
  H       2.039748     -1.355560     -2.546947
  H       0.378861     -2.329326      3.153869
  H       0.924907     -3.774278      2.243680
  H      -0.754137     -3.692867      2.864352
  H      -1.856353     -1.701544      3.250220
60
Coordinates from ORCA-job file E -2653.471181923281
  C      -4.558783      0.921728      3.208703
  O      -3.545393     -0.051226      3.228486
  C      -2.930240     -0.377484      2.079810
  C      -3.261844      0.185680      0.843612
  C      -2.547999     -0.210545     -0.297976
  O      -2.816326      0.256514     -1.516795
  C      -3.762680      1.280659     -1.690792
  C      -1.512426     -1.162548     -0.191855
  S      -0.463147     -1.596548     -1.546409
  C      -1.598133     -1.863949     -2.938675
  C      -2.255853     -3.085504     -3.029833
  C      -3.089998     -3.325843     -4.120090
  C      -3.222405     -2.343399     -5.101662
  Cl     -4.253437     -2.637749     -6.467282
  C      -2.541631     -1.128506     -5.015163
  C      -1.720962     -0.886999     -3.918738
  C       0.377552     -0.068110     -1.932490
  C       0.979655      0.600283     -0.679500
  N       2.345102      0.228868     -1.135289
  S       3.503134      1.410103     -1.328088
  O       4.602598      0.763783     -2.019982
  O       2.939206      2.647293     -1.850112
  C       3.987067      1.725720      0.348961
  C       3.625253      2.923617      0.956983
  C       4.042869      3.162489      2.265650
  C       4.816836      2.224359      2.958376
  C       5.307800      2.510730      4.352871
  C       5.159265      1.025545      2.316444
  C       4.753549      0.770628      1.012386
  C       1.819496     -0.375778     -2.391057
  C      -1.203288     -1.721858      1.065344
  O      -0.192890     -2.601743      1.085270
  C       0.209285     -3.149759      2.317057
  C      -1.910771     -1.331332      2.198757
  H      -5.410279      0.602135      2.587082
  H      -4.179331      1.886441      2.835018
  H      -4.896945      1.043162      4.242986
  H      -4.055421      0.921297      0.757130
  H      -3.473085      2.183628     -1.131606
  H      -3.774682      1.504134     -2.762813
  H      -4.769463      0.958971     -1.382124
  H      -2.127025     -3.844044     -2.252919
  H      -3.627705     -4.268746     -4.221814
  H      -2.663171     -0.386421     -5.805631
  H      -1.158382      0.041563     -3.756363
  H       0.746846      0.183779      0.316327
  H       0.823117      1.692621     -0.645080
  H       3.040515      3.652511      0.393479
  H       3.770987      4.100343      2.755389
  H       5.411621      1.587238      4.936979
  H       6.295972      2.995043      4.320144
  H       4.626664      3.186874      4.885525
  H       5.768526      0.289073      2.845638
  H       5.031676     -0.149072      0.494825
  H       2.132875      0.167278     -3.298341
  H       2.123910     -1.431325     -2.507490
  H       0.556148     -2.364993      3.006910
  H       1.036637     -3.830683      2.094106
  H      -0.612038     -3.712102      2.788325
  H      -1.698428     -1.727824      3.188893
60
Coordinates from ORCA-job file E -2653.472948876761
  C      -4.376729      0.890619      3.240546
  O      -3.388814     -0.108619      3.222530
  C      -2.801788     -0.424504      2.054512
  C      -3.142565      0.174589      0.837216
  C      -2.458182     -0.209777     -0.325757
  O      -2.718741      0.312313     -1.527579
  C      -3.647888      1.359008     -1.663110
  C      -1.451905     -1.195268     -0.262685
  S      -0.444079     -1.634314     -1.644586
  C      -1.656641     -1.857390     -2.981316
  C      -2.384268     -3.040694     -3.008445
  C      -3.291571     -3.253201     -4.045574
  C      -3.427183     -2.283856     -5.038921
  Cl     -4.557381     -2.538948     -6.333148
  C      -2.674977     -1.107178     -5.017432
  C      -1.779582     -0.894890     -3.975534
  C       0.452292     -0.156498     -2.028383
  C       0.979892      0.590118     -0.786889
  N       2.365382      0.163707     -1.116625
  S       3.576288      1.299921     -1.275881
  O       4.707690      0.584356     -1.840645
  O       3.088567      2.520153     -1.903331
  C       3.959264      1.704091      0.407460
  C       3.614862      2.951826      0.918976
  C       3.972860      3.257827      2.231016
  C       4.670407      2.338442      3.022639
  C       5.103696      2.697405      4.419387
  C       4.994682      1.087060      2.478476
  C       4.648488      0.764877      1.171892
  C       1.913295     -0.492661     -2.377289
  C      -1.130789     -1.787914      0.975287
  O      -0.147781     -2.700471      0.949927
  C       0.277472     -3.278459      2.161541
  C      -1.805189     -1.402973      2.131812
  H      -5.247851      0.601785      2.629943
  H      -3.981973      1.853099      2.877141
  H      -4.692309      0.998780      4.283791
  H      -3.915128      0.934608      0.784998
  H      -3.351572      2.231300     -1.060192
  H      -3.646362      1.627861     -2.724864
  H      -4.661911      1.039228     -1.376381
  H      -2.258318     -3.790147     -2.222482
  H      -3.889012     -4.163761     -4.091775
  H      -2.805184     -0.370287     -5.810824
  H      -1.167319      0.008965     -3.858484
  H       0.667571      0.250422      0.215099
  H       0.849880      1.686239     -0.842597
  H       3.092581      3.665800      0.280055
  H       3.714494      4.234391      2.646499
  H       5.137155      1.811167      5.066276
  H       6.113498      3.135836      4.402249
  H       4.428891      3.436059      4.871607
  H       5.543342      0.362429      3.084457
  H       4.917191     -0.194675      0.728008
  H       2.286888      0.010775     -3.284477
  H       2.205776     -1.556070     -2.427617
  H       0.673991     -2.512889      2.846550
  H       1.075864     -3.981124      1.902306
  H      -0.544695     -3.819180      2.654457
  H      -1.584573     -1.829302      3.107669
60
Coordinates from ORCA-job file E -2653.475180838387
  C      -4.216793      0.841831      3.272854
  O      -3.252912     -0.179882      3.218802
  C      -2.684791     -0.477010      2.033792
  C      -3.024197      0.165093      0.838035
  C      -2.362104     -0.197313     -0.343669
  O      -2.606364      0.385989     -1.525497
  C      -3.518045      1.452922     -1.621483
  C      -1.390099     -1.210192     -0.327821
  S      -0.409413     -1.649955     -1.729534
  C      -1.694030     -1.827794     -3.003901
  C      -2.479598     -2.972589     -2.951335
  C      -3.460042     -3.168527     -3.924380
  C      -3.611302     -2.223498     -4.936677
  Cl     -4.833788     -2.458273     -6.150638
  C      -2.799112     -1.085474     -4.997670
  C      -1.829959     -0.890518     -4.020047
  C       0.543417     -0.240793     -2.124561
  C       1.011492      0.599901     -0.922136
  N       2.399847      0.108920     -1.115986
  S       3.660662      1.198702     -1.242655
  O       4.812919      0.422509     -1.681296
  O       3.249857      2.394938     -1.967512
  C       3.941397      1.685998      0.441135
  C       3.608062      2.968428      0.865904
  C       3.891218      3.332461      2.180688
  C       4.503790      2.436952      3.063648
  C       4.857852      2.856807      4.465681
  C       4.820937      1.148654      2.607521
  C       4.548855      0.768421      1.298127
  C       2.011450     -0.613042     -2.365393
  C      -1.065784     -1.845352      0.888583
  O      -0.109894     -2.788602      0.821206
  C       0.317275     -3.415103      2.009453
  C      -1.713268     -1.478625      2.067260
  H      -5.100885      0.586149      2.664363
  H      -3.805900      1.805239      2.930538
  H      -4.519085      0.927451      4.322540
  H      -3.775585      0.946909      0.820720
  H      -3.218215      2.292989     -0.975327
  H      -3.501488      1.768105     -2.670500
  H      -4.538434      1.132850     -1.355769
  H      -2.344409     -3.704489     -2.151574
  H      -4.104120     -4.047287     -3.901668
  H      -2.943404     -0.364160     -5.801579
  H      -1.172509     -0.013393     -3.975278
  H       0.623410      0.353698      0.079857
  H       0.928941      1.692532     -1.075217
  H       3.150278      3.663206      0.160384
  H       3.638327      4.336164      2.528653
  H       4.817535      2.004757      5.157703
  H       5.882780      3.259077      4.488748
  H       4.182158      3.640548      4.834464
  H       5.302734      0.439679      3.284079
  H       4.811825     -0.220660      0.922094
  H       2.448236     -0.164330     -3.273257
  H       2.280914     -1.682807     -2.334482
  H       0.747623     -2.679499      2.707521
  H       1.092928     -4.130774      1.717115
  H      -0.510765     -3.946280      2.501625
  H      -1.490428     -1.941657      3.025250
60
Coordinates from ORCA-job file E -2653.477462667478
  C      -4.090911      0.746480      3.332391
  O      -3.145048     -0.289482      3.238430
  C      -2.592485     -0.560682      2.038454
  C      -2.926787      0.127475      0.867334
  C      -2.282221     -0.206354     -0.331469
  O      -2.510000      0.434620     -1.488907
  C      -3.407972      1.515818     -1.542046
  C      -1.344540     -1.240758     -0.365310
  S      -0.387141     -1.670313     -1.790660
  C      -1.721645     -1.777904     -3.021705
  C      -2.573396     -2.872140     -2.921941
  C      -3.603136     -3.021720     -3.852388
  C      -3.737834     -2.083444     -4.871867
  Cl     -5.024152     -2.258291     -6.030801
  C      -2.858922     -0.998506     -4.981916
  C      -1.840057     -0.850117     -4.047122
  C       0.630753     -0.338511     -2.190749
  C       1.059113      0.602695     -1.054221
  N       2.429398      0.036363     -1.103728
  S       3.751646      1.053700     -1.208185
  O       4.894490      0.193720     -1.501156
  O       3.452719      2.209800     -2.049102
  C       3.928951      1.650463      0.457531
  C       3.646678      2.977717      0.761970
  C       3.851888      3.426093      2.064621
  C       4.338660      2.569099      3.056435
  C       4.614104      3.075256      4.447152
  C       4.607722      1.232794      2.721902
  C       4.412839      0.768949      1.425198
  C       2.094424     -0.764092     -2.320716
  C      -1.019547     -1.921920      0.826764
  O      -0.086563     -2.886937      0.718541
  C       0.346915     -3.556723      1.880979
  C      -1.642463     -1.582269      2.026682
  H      -4.986006      0.521502      2.727238
  H      -3.668716      1.712881      3.013334
  H      -4.379671      0.805802      4.387809
  H      -3.658172      0.928032      0.885015
  H      -3.105954      2.322678     -0.855315
  H      -3.380831      1.878328     -2.575431
  H      -4.432537      1.191789     -1.295139
  H      -2.451521     -3.600317     -2.117408
  H      -4.296830     -3.859658     -3.790573
  H      -2.992588     -0.279459     -5.788889
  H      -1.134429     -0.011303     -4.049526
  H       0.596317      0.469705     -0.062297
  H       1.044255      1.678946     -1.311487
  H       3.290421      3.642071     -0.026389
  H       3.637277      4.466293      2.317268
  H       4.470422      2.281570      5.193297
  H       5.658512      3.417886      4.519058
  H       3.963550      3.922260      4.705732
  H       4.988742      0.551346      3.484925
  H       4.641251     -0.258812      1.142450
  H       2.599607     -0.389134     -3.227134
  H       2.325079     -1.836164     -2.198958
  H       0.807524     -2.849770      2.589661
  H       1.100820     -4.281036      1.554105
  H      -0.483129     -4.083054      2.375168
  H      -1.418871     -2.083261      2.964589
60
Coordinates from ORCA-job file E -2653.480225875493
  C      -4.086662      0.601701      3.411585
  O      -3.193137     -0.476471      3.282892
  C      -2.617170     -0.710471      2.087837
  C      -2.871044      0.061963      0.951180
  C      -2.206354     -0.236165     -0.244948
  O      -2.342901      0.496121     -1.360078
  C      -3.184041      1.621078     -1.369375
  C      -1.339229     -1.315866     -0.324645
  S      -0.366936     -1.717177     -1.763407
  C      -1.695151     -1.738407     -3.001310
  C      -2.630167     -2.767909     -2.916176
  C      -3.654716     -2.845153     -3.861346
  C      -3.703701     -1.899974     -4.882402
  Cl     -4.985700     -1.979503     -6.057765
  C      -2.744559     -0.886452     -4.978284
  C      -1.729189     -0.810111     -4.029845
  C       0.687315     -0.452129     -2.171263
  C       1.094517      0.593996     -1.133668
  N       2.447630     -0.005423     -1.083976
  S       3.776986      0.985887     -1.242314
  O       4.913730      0.101297     -1.491430
  O       3.493826      2.087786     -2.165919
  C       3.916735      1.671048      0.398933
  C       3.637706      3.014426      0.614618
  C       3.808725      3.545894      1.890890
  C       4.260539      2.751506      2.948355
  C       4.499337      3.344427      4.311104
  C       4.530086      1.394727      2.703979
  C       4.368945      0.850826      1.433729
  C       2.146619     -0.906247     -2.231089
  C      -1.084802     -2.081263      0.836695
  O      -0.205345     -3.092534      0.709579
  C       0.157886     -3.839017      1.846559
  C      -1.720060     -1.783157      2.039695
  H      -4.972773      0.462250      2.770000
  H      -3.602867      1.559725      3.162759
  H      -4.403091      0.617867      4.460076
  H      -3.552990      0.905310      0.996106
  H      -2.876958      2.359829     -0.611593
  H      -3.094653      2.061808     -2.367683
  H      -4.231234      1.325762     -1.188180
  H      -2.572684     -3.501266     -2.109504
  H      -4.407314     -3.631307     -3.813060
  H      -2.810206     -0.163681     -5.790473
  H      -0.966684     -0.025450     -4.046663
  H       0.591913      0.562893     -0.149259
  H       1.116050      1.640405     -1.488115
  H       3.307795      3.630493     -0.222895
  H       3.594183      4.601407      2.068848
  H       4.327980      2.601698      5.103022
  H       5.543415      3.686131      4.395061
  H       3.847420      4.209675      4.495717
  H       4.882769      0.761631      3.519992
  H       4.597695     -0.194471      1.221893
  H       2.687978     -0.606577     -3.145962
  H       2.365286     -1.966052     -2.015467
  H       0.635927     -3.193614      2.600970
  H       0.877254     -4.590029      1.502879
  H      -0.712990     -4.343120      2.294778
  H      -1.550940     -2.350569      2.949863
60
Coordinates from ORCA-job file E -2653.484508265771
  C      -3.910983      0.554976      3.461022
  O      -3.099009     -0.580141      3.290329
  C      -2.531322     -0.803839      2.092475
  C      -2.723188      0.030408      0.987698
  C      -2.069104     -0.268652     -0.214481
  O      -2.131858      0.520301     -1.296235
  C      -2.897726      1.698206     -1.270243
  C      -1.278623     -1.413714     -0.332007
  S      -0.348393     -1.805225     -1.803441
  C      -1.715183     -1.743864     -3.005258
  C      -2.716583     -2.706012     -2.903818
  C      -3.766895     -2.700852     -3.821823
  C      -3.777665     -1.740779     -4.832330
  Cl     -5.094212     -1.709642     -5.969162
  C      -2.754461     -0.798187     -4.946724
  C      -1.711080     -0.805955     -4.026208
  C       0.746092     -0.578288     -2.196094
  C       1.097601      0.537477     -1.214945
  N       2.446823     -0.057049     -1.056791
  S       3.782686      0.925444     -1.201484
  O       4.926216      0.034816     -1.353914
  O       3.548372      1.976640     -2.189997
  C       3.854862      1.696609      0.401473
  C       3.577679      3.052494      0.528282
  C       3.702745      3.653423      1.779877
  C       4.106619      2.915531      2.896978
  C       4.296746      3.583602      4.233147
  C       4.373375      1.545588      2.739118
  C       4.257740      0.932918      1.496787
  C       2.210180     -1.021678     -2.163812
  C      -1.084721     -2.236209      0.800308
  O      -0.288360     -3.304000      0.634492
  C       0.012318     -4.115352      1.743788
  C      -1.708891     -1.935892      2.008971
  H      -4.797643      0.511990      2.807741
  H      -3.353266      1.483214      3.258150
  H      -4.236137      0.550229      4.506656
  H      -3.343014      0.918644      1.062202
  H      -2.560543      2.377470     -0.471377
  H      -2.753429      2.178463     -2.243290
  H      -3.966417      1.470083     -1.128683
  H      -2.692908     -3.448548     -2.102032
  H      -4.573954     -3.430117     -3.757455
  H      -2.791076     -0.062278     -5.750425
  H      -0.894868     -0.077260     -4.055661
  H       0.534337      0.578276     -0.264113
  H       1.142228      1.552642     -1.647687
  H       3.284561      3.622379     -0.354953
  H       3.489173      4.718732      1.890447
  H       4.086262      2.890765      5.059304
  H       5.339315      3.922175      4.339814
  H       3.647376      4.462935      4.340511
  H       4.687888      0.956178      3.602812
  H       4.485681     -0.124709      1.354354
  H       2.786857     -0.759238     -3.067854
  H       2.427363     -2.067007     -1.889219
  H       0.533956     -3.536422      2.522267
  H       0.672998     -4.906319      1.374409
  H      -0.896944     -4.566710      2.171295
  H      -1.589592     -2.548670      2.898314
60
Coordinates from ORCA-job file E -2653.486901718774
  C      -3.715405      0.533091      3.531897
  O      -3.014777     -0.663442      3.306570
  C      -2.449405     -0.873109      2.108028
  C      -2.542281      0.033309      1.047048
  C      -1.901302     -0.277659     -0.160586
  O      -1.878143      0.550737     -1.213109
  C      -2.522613      1.798741     -1.142782
  C      -1.216187     -1.499457     -0.318365
  S      -0.332138     -1.857437     -1.828692
  C      -1.737576     -1.756953     -2.992375
  C      -2.756004     -2.697744     -2.884170
  C      -3.813778     -2.669068     -3.788229
  C      -3.821986     -1.699911     -4.792122
  Cl     -5.142259     -1.649790     -5.919950
  C      -2.788581     -0.773277     -4.912895
  C      -1.732857     -0.807294     -4.004720
  C       0.789833     -0.646643     -2.207558
  C       1.094360      0.514300     -1.264180
  N       2.453999     -0.052355     -1.046360
  S       3.787780      0.939709     -1.191617
  O       4.935291      0.058042     -1.272639
  O       3.588567      1.958543     -2.212210
  C       3.810322      1.764043      0.379105
  C       3.531385      3.125051      0.444260
  C       3.606313      3.766104      1.681012
  C       3.959798      3.062485      2.837981
  C       4.091189      3.772455      4.160046
  C       4.230723      1.689691      2.735993
  C       4.166226      1.036461      1.512511
  C       2.263220     -1.060432     -2.127436
  C      -1.122533     -2.388170      0.771303
  O      -0.444755     -3.521942      0.553332
  C      -0.281245     -4.431221      1.613408
  C      -1.742218     -2.078620      1.980716
  H      -4.588346      0.619689      2.865716
  H      -3.063311      1.409881      3.391129
  H      -4.058962      0.503292      4.570854
  H      -3.078758      0.970929      1.154133
  H      -2.106360      2.414592     -0.330480
  H      -2.339303      2.291624     -2.102948
  H      -3.607293      1.684086     -0.995891
  H      -2.732721     -3.449522     -2.089470
  H      -4.629066     -3.389990     -3.723596
  H      -2.819977     -0.034494     -5.715394
  H      -0.893100     -0.105795     -4.045822
  H       0.496480      0.585035     -0.338491
  H       1.134690      1.507072     -1.745132
  H       3.276937      3.664624     -0.469766
  H       3.392858      4.835505      1.747600
  H       3.843527      3.108712      4.998377
  H       5.126400      4.117357      4.304924
  H       3.438706      4.653440      4.207196
  H       4.503633      1.128415      3.632934
  H       4.392812     -0.027100      1.417908
  H       2.850166     -0.814179     -3.028332
  H       2.501007     -2.090359     -1.818495
  H       0.259351     -3.968804      2.453844
  H       0.307312     -5.263899      1.215991
  H      -1.253299     -4.807021      1.968937
  H      -1.706343     -2.741329      2.842558
60
Coordinates from ORCA-job file E -2653.487851645950
  C      -3.790012      0.385762      3.538493
  O      -3.089833     -0.808980      3.295944
  C      -2.493412     -0.987184      2.103573
  C      -2.554943     -0.047166      1.070565
  C      -1.891631     -0.319708     -0.132169
  O      -1.838903      0.548319     -1.155519
  C      -2.488707      1.791017     -1.061510
  C      -1.216504     -1.528138     -0.321070
  S      -0.307522     -1.865588     -1.826625
  C      -1.718015     -1.696262     -2.969501
  C      -2.788771     -2.573888     -2.822377
  C      -3.861955     -2.502930     -3.708550
  C      -3.834686     -1.554744     -4.730405
  Cl     -5.178765     -1.443514     -5.828982
  C      -2.748753     -0.692593     -4.888014
  C      -1.677604     -0.771296     -4.001447
  C       0.845952     -0.722580     -2.196131
  C       1.139426      0.518346     -1.361095
  N       2.459217     -0.066247     -1.016698
  S       3.828060      0.871350     -1.164653
  O       4.948896     -0.059191     -1.170289
  O       3.685627      1.838221     -2.251646
  C       3.827707      1.771383      0.371139
  C       3.609551      3.144487      0.369078
  C       3.673740      3.839776      1.576230
  C       3.956504      3.179099      2.776020
  C       4.077257      3.945451      4.066764
  C       4.166763      1.791012      2.746706
  C       4.111296      1.084047      1.551161
  C       2.297539     -1.157759     -2.014308
  C      -1.150646     -2.456179      0.738908
  O      -0.467429     -3.588423      0.500557
  C      -0.300766     -4.520496      1.541495
  C      -1.789705     -2.189255      1.948533
  H      -4.642647      0.495944      2.848470
  H      -3.130656      1.263588      3.445431
  H      -4.165384      0.324417      4.565464
  H      -3.086822      0.890286      1.199672
  H      -2.101288      2.380657     -0.215112
  H      -2.279860      2.317786     -1.998234
  H      -3.576984      1.660459     -0.948731
  H      -2.794516     -3.307382     -2.012194
  H      -4.716306     -3.172200     -3.612351
  H      -2.753997      0.032931     -5.701385
  H      -0.804870     -0.116845     -4.082007
  H       0.504688      0.691150     -0.474413
  H       1.241784      1.462053     -1.926952
  H       3.407415      3.652633     -0.574829
  H       3.506371      4.918946      1.585790
  H       3.769046      3.334445      4.926232
  H       5.123946      4.246385      4.231216
  H       3.467345      4.859024      4.050531
  H       4.384947      1.261053      3.676022
  H       4.291774      0.008739      1.512567
  H       2.932656     -0.993724     -2.902623
  H       2.494401     -2.162936     -1.609519
  H       0.237381     -4.069361      2.390215
  H       0.294672     -5.340922      1.127537
  H      -1.269472     -4.911511      1.890702
  H      -1.772597     -2.881761      2.785826
60
Coordinates from ORCA-job file E -2653.487251485708
  C      -3.972889      0.343823      3.486632
  O      -3.193612     -0.807152      3.275800
  C      -2.565098     -0.964031      2.092076
  C      -2.679060     -0.049176      1.040226
  C      -2.004550     -0.314662     -0.157347
  O      -2.074941      0.488794     -1.235821
  C      -2.825178      1.675968     -1.183661
  C      -1.237990     -1.472489     -0.302962
  S      -0.319360     -1.793637     -1.810082
  C      -1.729040     -1.634196     -2.949149
  C      -2.786221     -2.525116     -2.789088
  C      -3.850958     -2.497337     -3.686065
  C      -3.835333     -1.570884     -4.726770
  Cl     -5.165308     -1.531625     -5.847571
  C      -2.765072     -0.686499     -4.893216
  C      -1.698162     -0.724884     -3.996197
  C       0.859509     -0.669418     -2.167205
  C       1.171227      0.576012     -1.333711
  N       2.490812     -0.021035     -1.009346
  S       3.884340      0.871655     -1.179414
  O       4.954106     -0.119674     -1.199446
  O       3.761346      1.849975     -2.258654
  C       3.941227      1.757256      0.366962
  C       3.774674      3.138625      0.391501
  C       3.854075      3.805025      1.614106
  C       4.101888      3.111978      2.803124
  C       4.224195      3.846316      4.112317
  C       4.268902      1.719676      2.746540
  C       4.194035      1.037644      1.535974
  C       2.303478     -1.120793     -1.997835
  C      -1.128924     -2.375974      0.767835
  O      -0.355206     -3.460072      0.549405
  C      -0.128617     -4.364745      1.605842
  C      -1.794364     -2.122587      1.966317
  H      -4.805364      0.401390      2.764348
  H      -3.365174      1.260352      3.413770
  H      -4.381281      0.262825      4.500256
  H      -3.285989      0.844618      1.139879
  H      -2.430360      2.361176     -0.414808
  H      -2.727121      2.142239     -2.170264
  H      -3.888412      1.465376     -0.980712
  H      -2.776254     -3.244253     -1.968265
  H      -4.687564     -3.187940     -3.589411
  H      -2.776502      0.017019     -5.723519
  H      -0.823473     -0.076830     -4.093650
  H       0.575841      0.750210     -0.427943
  H       1.267561      1.520544     -1.902894
  H       3.591960      3.670583     -0.541803
  H       3.723549      4.888723      1.645251
  H       3.884289      3.226382      4.954424
  H       5.275468      4.115857      4.303547
  H       3.640666      4.778441      4.105757
  H       4.461640      1.165196      3.666556
  H       4.328945     -0.042714      1.480237
  H       2.928141     -0.975815     -2.897622
  H       2.505767     -2.120485     -1.582693
  H       0.349076     -3.858201      2.459827
  H       0.546788     -5.134197      1.215327
  H      -1.064122     -4.837353      1.942632
  H      -1.742009     -2.789906      2.822161
60
Coordinates from ORCA-job file E -2653.488824371323
  C      -3.840533      0.302365      3.555277
  O      -3.108450     -0.869031      3.305005
  C      -2.511810     -1.022553      2.107061
  C      -2.606315     -0.080660      1.075735
  C      -1.958898     -0.350960     -0.137801
  O      -1.976427      0.492799     -1.185695
  C      -2.666248      1.713883     -1.088667
  C      -1.249983     -1.548240     -0.317340
  S      -0.357230     -1.862756     -1.845593
  C      -1.757701     -1.656196     -2.989701
  C      -2.866635     -2.477744     -2.823362
  C      -3.916668     -2.401414     -3.732872
  C      -3.831524     -1.502406     -4.795089
  Cl     -5.141297     -1.412320     -5.934585
  C      -2.711309     -0.685352     -4.965672
  C      -1.660807     -0.768946     -4.052330
  C       0.846220     -0.746584     -2.181231
  C       1.104969      0.545524     -1.401001
  N       2.409818     -0.027222     -0.975105
  S       3.822359      0.840914     -1.112322
  O       4.864296     -0.170284     -1.069645
  O       3.760191      1.795088     -2.211121
  C       3.858521      1.772886      0.402846
  C       3.731639      3.158266      0.369506
  C       3.825255      3.869560      1.565275
  C       4.051174      3.216376      2.781212
  C       4.200170      3.998976      4.059608
  C       4.175411      1.819296      2.780430
  C       4.085288      1.092182      1.598781
  C       2.285993     -1.177029     -1.917658
  C      -1.148407     -2.465959      0.739494
  O      -0.426328     -3.573315      0.486202
  C      -0.188680     -4.481359      1.535803
  C      -1.784612     -2.206081      1.951561
  H      -4.688980      0.404946      2.858375
  H      -3.202514      1.198030      3.482930
  H      -4.224932      0.216331      4.577366
  H      -3.164168      0.840615      1.205709
  H      -2.255739      2.338157     -0.278116
  H      -2.521315      2.222726     -2.047970
  H      -3.743159      1.553576     -0.920909
  H      -2.910550     -3.177820     -1.986452
  H      -4.797049     -3.035748     -3.631935
  H      -2.672719      0.004559     -5.808078
  H      -0.755914     -0.156458     -4.126496
  H       0.455013      0.773257     -0.545527
  H       1.231939      1.449990     -2.022776
  H       3.569831      3.656916     -0.586491
  H       3.726137      4.957308      1.553392
  H       3.834357      3.429570      4.924960
  H       5.259700      4.235507      4.245340
  H       3.653980      4.950892      4.011408
  H       4.356095      1.297274      3.722341
  H       4.198174      0.007559      1.585957
  H       2.953711     -1.070717     -2.790977
  H       2.475966     -2.152827     -1.445607
  H       0.345416     -3.993376      2.366868
  H       0.438360     -5.277662      1.120522
  H      -1.127187     -4.914518      1.913971
  H      -1.745894     -2.889791      2.796686
60
Coordinates from ORCA-job file E -2653.489355501312
  C      -3.898692      0.222647      3.565665
  O      -3.173924     -0.952323      3.307609
  C      -2.552349     -1.088299      2.123339
  C      -2.604344     -0.118856      1.116544
  C      -1.937251     -0.367114     -0.090790
  O      -1.925471      0.502618     -1.113236
  C      -2.606232      1.726812     -0.998362
  C      -1.243550     -1.567697     -0.292917
  S      -0.343995     -1.882550     -1.820217
  C      -1.723984     -1.649204     -2.978724
  C      -2.857401     -2.444108     -2.829475
  C      -3.896858     -2.334605     -3.749511
  C      -3.775094     -1.433139     -4.806830
  Cl     -5.069353     -1.297116     -5.959408
  C      -2.632336     -0.649844     -4.961748
  C      -1.594393     -0.764327     -4.039594
  C       0.853653     -0.770993     -2.151387
  C       1.107745      0.510602     -1.366417
  N       2.424729     -0.047527     -0.958886
  S       3.818543      0.852864     -1.127055
  O       4.902678     -0.115870     -1.113246
  O       3.706654      1.804887     -2.225883
  C       3.865032      1.800187      0.376125
  C       3.725567      3.181442      0.316589
  C       3.827025      3.919816      1.494187
  C       4.072202      3.291496      2.719276
  C       4.235113      4.100509      3.978225
  C       4.201430      1.894004      2.746165
  C       4.105145      1.143026      1.581254
  C       2.295164     -1.203233     -1.890568
  C      -1.179229     -2.516383      0.746695
  O      -0.481073     -3.634825      0.494943
  C      -0.319708     -4.575868      1.527265
  C      -1.837248     -2.281699      1.951645
  H      -4.716592      0.359045      2.840233
  H      -3.245378      1.110086      3.546317
  H      -4.324834      0.112792      4.568339
  H      -3.148609      0.809619      1.260424
  H      -2.190778      2.339844     -0.182999
  H      -2.464011      2.247195     -1.951074
  H      -3.682466      1.568462     -0.827014
  H      -2.932651     -3.143284     -1.992407
  H      -4.795796     -2.944725     -3.660764
  H      -2.564302      0.039986     -5.804077
  H      -0.671683     -0.182544     -4.120297
  H       0.451521      0.717278     -0.500443
  H       1.214309      1.423855     -1.976041
  H       3.561264      3.659773     -0.650550
  H       3.726948      5.006904      1.459145
  H       3.887925      3.544349      4.858950
  H       5.295563      4.347795      4.141495
  H       3.679638      5.045651      3.921220
  H       4.389966      1.392074      3.697683
  H       4.222577      0.057963      1.587225
  H       2.962235     -1.104926     -2.764438
  H       2.481966     -2.176087     -1.409367
  H       0.176379     -4.122908      2.400271
  H       0.312626     -5.372673      1.122865
  H      -1.287571     -5.000305      1.839135
  H      -1.826440     -2.990551      2.776398
60
Coordinates from ORCA-job file E -2653.489694746167
  C      -4.042407      0.036701      3.576434
  O      -3.281145     -1.112883      3.308872
  C      -2.638716     -1.210751      2.130755
  C      -2.695637     -0.220725      1.144763
  C      -2.008058     -0.428681     -0.058307
  O      -2.003034      0.462565     -1.063766
  C      -2.733725      1.656435     -0.942764
  C      -1.290404     -1.606558     -0.278025
  S      -0.362061     -1.880120     -1.801459
  C      -1.715986     -1.577053     -2.967473
  C      -2.906241     -2.284075     -2.809539
  C      -3.922107     -2.133585     -3.750535
  C      -3.721199     -1.282692     -4.836863
  Cl     -4.983088     -1.109628     -6.020731
  C      -2.525900     -0.582873     -4.995478
  C      -1.511616     -0.737889     -4.052926
  C       0.871891     -0.813182     -2.090060
  C       1.123242      0.506661     -1.372834
  N       2.412833     -0.050619     -0.891180
  S       3.834972      0.799575     -1.071361
  O       4.886326     -0.205302     -1.002593
  O       3.766255      1.708158     -2.212019
  C       3.899902      1.812794      0.388086
  C       3.824030      3.193225      0.255164
  C       3.966037      3.989675      1.389432
  C       4.188968      3.418185      2.645740
  C       4.400853      4.286282      3.856842
  C       4.251469      2.019385      2.749042
  C       4.115405      1.210907      1.626727
  C       2.289593     -1.261981     -1.748389
  C      -1.218101     -2.576515      0.741175
  O      -0.493270     -3.676607      0.473978
  C      -0.322911     -4.638584      1.485583
  C      -1.896124     -2.384278      1.942822
  H      -4.845983      0.169227      2.834051
  H      -3.413205      0.941634      3.594082
  H      -4.490119     -0.108016      4.565422
  H      -3.257659      0.694603      1.303599
  H      -2.358423      2.273175     -0.110552
  H      -2.596507      2.196932     -1.884911
  H      -3.805494      1.449962     -0.793307
  H      -3.041961     -2.948442     -1.952672
  H      -4.862398     -2.676991     -3.658491
  H      -2.397268      0.071897     -5.857964
  H      -0.552547     -0.220852     -4.138179
  H       0.446035      0.772935     -0.541324
  H       1.268691      1.381620     -2.029409
  H       3.679276      3.624357     -0.736609
  H       3.916764      5.076549      1.294739
  H       4.026558      3.799549      4.767571
  H       5.474039      4.483279      4.005773
  H       3.897357      5.255995      3.747613
  H       4.421810      1.562504      3.726156
  H       4.185191      0.123722      1.691408
  H       2.991071     -1.235769     -2.600331
  H       2.435080     -2.204214     -1.197096
  H       0.142379     -4.192725      2.378953
  H       0.341466     -5.405609      1.074540
  H      -1.282710     -5.100572      1.768039
  H      -1.881491     -3.110713      2.751284
60
Coordinates from ORCA-job file E -2653.490105795664
  C      -4.042455     -0.051642      3.637926
  O      -3.270396     -1.189830      3.354165
  C      -2.651330     -1.276694      2.162513
  C      -2.714999     -0.271854      1.192335
  C      -2.032703     -0.461002     -0.017403
  O      -2.030412      0.450223     -1.004808
  C      -2.794066      1.622057     -0.873108
  C      -1.316761     -1.638155     -0.260447
  S      -0.378774     -1.891310     -1.787693
  C      -1.706326     -1.525406     -2.963433
  C      -2.938883     -2.159661     -2.813834
  C      -3.929237     -1.967468     -3.773462
  C      -3.662614     -1.150664     -4.872044
  Cl     -4.893310     -0.932138     -6.080137
  C      -2.430036     -0.517445     -5.019277
  C      -1.439677     -0.715618     -4.058294
  C       0.895107     -0.859588     -2.043587
  C       1.153928      0.469959     -1.346530
  N       2.438989     -0.089478     -0.853599
  S       3.867134      0.742426     -1.052548
  O       4.906381     -0.266906     -0.924533
  O       3.820922      1.609661     -2.225056
  C       3.921266      1.808879      0.367298
  C       3.901725      3.184294      0.174456
  C       4.029152      4.021709      1.281175
  C       4.177347      3.494894      2.567975
  C       4.369424      4.404294      3.751954
  C       4.181620      2.100938      2.730140
  C       4.063341      1.251367      1.636697
  C       2.301578     -1.325967     -1.675528
  C      -1.244985     -2.625653      0.740707
  O      -0.512254     -3.715604      0.452955
  C      -0.345266     -4.704500      1.438879
  C      -1.916287     -2.450499      1.949503
  H      -4.864110      0.068988      2.913349
  H      -3.426633      0.862754      3.639613
  H      -4.465631     -0.200630      4.637101
  H      -3.266638      0.645496      1.373029
  H      -2.438624      2.240316     -0.033110
  H      -2.668609      2.175712     -1.809203
  H      -3.860651      1.386101     -0.730521
  H      -3.125804     -2.801595     -1.950073
  H      -4.901874     -2.451725     -3.686913
  H      -2.252481      0.118090     -5.887117
  H      -0.451105     -0.257117     -4.138011
  H       0.479227      0.752044     -0.521795
  H       1.305917      1.334908     -2.015597
  H       3.804550      3.576310     -0.838773
  H       4.020482      5.104904      1.141396
  H       3.928611      3.974959      4.661865
  H       5.441645      4.560993      3.947770
  H       3.917427      5.389387      3.576360
  H       4.290761      1.680057      3.732152
  H       4.083588      0.166078      1.749547
  H       3.012074     -1.342794     -2.519767
  H       2.426139     -2.251174     -1.091901
  H       0.097879     -4.281152      2.353699
  H       0.336402     -5.449898      1.016692
  H      -1.303091     -5.187589      1.689873
  H      -1.896594     -3.187041      2.748476
60
Coordinates from ORCA-job file E -2653.490447368498
  C      -4.004554     -0.124863      3.731165
  O      -3.242868     -1.263202      3.421383
  C      -2.637382     -1.334919      2.221274
  C      -2.685774     -0.308375      1.273716
  C      -2.007037     -0.481626      0.058217
  O      -1.995125      0.455208     -0.905260
  C      -2.788687      1.606464     -0.765242
  C      -1.311247     -1.668421     -0.214776
  S      -0.371628     -1.927070     -1.749772
  C      -1.656990     -1.462224     -2.937654
  C      -2.943526     -1.986071     -2.804469
  C      -3.904927     -1.703698     -3.769657
  C      -3.560492     -0.904525     -4.860477
  Cl     -4.761226     -0.558033     -6.067943
  C      -2.277206     -0.381169     -4.993545
  C      -1.314136     -0.672744     -4.027073
  C       0.956479     -0.952528     -1.984321
  C       1.240720      0.380352     -1.304744
  N       2.532176     -0.186277     -0.833769
  S       3.950755      0.642023     -1.082955
  O       4.997688     -0.345138     -0.885018
  O       3.903145      1.446230     -2.299192
  C       3.960228      1.774155      0.286414
  C       3.916667      3.140469      0.032503
  C       3.953872      4.025004      1.110689
  C       4.036612      3.554443      2.425756
  C       4.113941      4.514426      3.582967
  C       4.076119      2.169594      2.645583
  C       4.043698      1.273481      1.584410
  C       2.354622     -1.447807     -1.614649
  C      -1.261502     -2.678960      0.763894
  O      -0.542736     -3.770994      0.450577
  C      -0.415041     -4.803455      1.396962
  C      -1.932245     -2.520190      1.975757
  H      -4.828696      0.016339      3.012793
  H      -3.381659      0.784592      3.744846
  H      -4.422765     -0.287356      4.730365
  H      -3.216346      0.616026      1.477727
  H      -2.454120      2.225006      0.083272
  H      -2.671532      2.173318     -1.694622
  H      -3.850462      1.344948     -0.631885
  H      -3.197134     -2.606719     -1.942914
  H      -4.919405     -2.093918     -3.688447
  H      -2.038407      0.246143     -5.851980
  H      -0.288999     -0.303965     -4.104210
  H       0.586702      0.668648     -0.469292
  H       1.382226      1.244695     -1.978016
  H       3.848196      3.485130     -0.999657
  H       3.913171      5.100873      0.926497
  H       3.627291      4.103559      4.477968
  H       5.163422      4.720702      3.844781
  H       3.640568      5.474215      3.337032
  H       4.133071      1.793196      3.669615
  H       4.072533      0.194728      1.745212
  H       3.059754     -1.519461     -2.460493
  H       2.461014     -2.352332     -0.996809
  H       0.008509     -4.430495      2.342091
  H       0.266314     -5.540296      0.959526
  H      -1.386162     -5.281601      1.600037
  H      -1.929475     -3.275533      2.757313
60
Coordinates from ORCA-job file E -2653.490119043311
  C      -3.908665     -0.178908      3.824155
  O      -3.178214     -1.329955      3.486944
  C      -2.585359     -1.394977      2.279759
  C      -2.605487     -0.349082      1.352810
  C      -1.934830     -0.517155      0.130904
  O      -1.895809      0.443357     -0.808851
  C      -2.682999      1.597776     -0.655320
  C      -1.280337     -1.722097     -0.173292
  S      -0.351716     -1.996226     -1.720214
  C      -1.590805     -1.404124     -2.904725
  C      -2.927908     -1.785827     -2.779106
  C      -3.858810     -1.363705     -3.721565
  C      -3.437237     -0.564359     -4.786435
  Cl     -4.602707     -0.012650     -5.951232
  C      -2.102995     -0.194108     -4.921395
  C      -1.171082     -0.626470     -3.976490
  C       1.025874     -1.080961     -1.935346
  C       1.331014      0.255124     -1.275648
  N       2.624259     -0.317180     -0.817519
  S       4.030257      0.518329     -1.103901
  O       5.100315     -0.422273     -0.827244
  O       3.986577      1.244791     -2.368309
  C       3.952631      1.723111      0.201321
  C       3.857237      3.072867     -0.124254
  C       3.777810      4.007804      0.909519
  C       3.794990      3.604417      2.249565
  C       3.731209      4.617792      3.361703
  C       3.897104      2.236337      2.540671
  C       3.979740      1.290849      1.526443
  C       2.416403     -1.598226     -1.560369
  C      -1.262195     -2.752438      0.785764
  O      -0.580110     -3.860155      0.448905
  C      -0.507381     -4.925919      1.363808
  C      -1.924278     -2.597938      2.002872
  H      -4.734743     -0.004926      3.114951
  H      -3.263057      0.714349      3.845996
  H      -4.321335     -0.346622      4.824775
  H      -3.104570      0.587696      1.577759
  H      -2.349964      2.201453      0.204394
  H      -2.558069      2.178931     -1.575111
  H      -3.747440      1.342428     -0.531145
  H      -3.248268     -2.393431     -1.930830
  H      -4.910949     -1.635215     -3.636537
  H      -1.799989      0.433183     -5.759020
  H      -0.113176     -0.368609     -4.056611
  H       0.687625      0.553692     -0.435970
  H       1.467000      1.115808     -1.955431
  H       3.828746      3.362712     -1.174790
  H       3.689369      5.069663      0.669395
  H       3.206486      4.217335      4.239827
  H       4.744944      4.901545      3.685039
  H       3.220875      5.534324      3.036734
  H       3.904278      1.912080      3.583885
  H       4.045617      0.223996      1.743995
  H       3.117469     -1.716585     -2.404730
  H       2.505132     -2.483327     -0.912585
  H      -0.084189     -4.602444      2.327411
  H       0.149379     -5.676682      0.912343
  H      -1.501139     -5.368131      1.536850
  H      -1.946530     -3.371044      2.766979
60
Coordinates from ORCA-job file E -2653.490693907806
  C      -3.818370     -0.039951      3.786959
  O      -3.122915     -1.215166      3.457963
  C      -2.530700     -1.307044      2.252868
  C      -2.542353     -0.276023      1.307914
  C      -1.884031     -0.474404      0.084637
  O      -1.828117      0.468458     -0.871966
  C      -2.562414      1.658119     -0.724254
  C      -1.255006     -1.695896     -0.204168
  S      -0.347401     -1.992664     -1.749742
  C      -1.625527     -1.462182     -2.925779
  C      -2.933032     -1.929060     -2.797619
  C      -3.891033     -1.563284     -3.736753
  C      -3.524119     -0.734347     -4.799073
  Cl     -4.719655     -0.265696     -5.969675
  C      -2.214246     -0.284512     -4.939243
  C      -1.257098     -0.656593     -3.995544
  C       0.998377     -1.038203     -1.989638
  C       1.291264      0.281419     -1.293385
  N       2.593090     -0.289183     -0.858245
  S       3.990320      0.577067     -1.119167
  O       5.081642     -0.355673     -0.900609
  O       3.927504      1.344834     -2.357749
  C       3.910161      1.731019      0.231416
  C       3.771777      3.089929     -0.033842
  C       3.700855      3.979918      1.038419
  C       3.768363      3.524399      2.359417
  C       3.715591      4.490529      3.513627
  C       3.912037      2.148396      2.591530
  C       3.986310      1.247414      1.536773
  C       2.401129     -1.538576     -1.651208
  C      -1.238817     -2.709093      0.773267
  O      -0.583462     -3.835793      0.450521
  C      -0.503834     -4.871012      1.399353
  C      -1.885090     -2.522036      1.993623
  H      -4.639277      0.151247      3.076545
  H      -3.146498      0.833720      3.802805
  H      -4.235860     -0.189032      4.788438
  H      -3.031943      0.669604      1.517675
  H      -2.193396      2.255939      0.124429
  H      -2.423138      2.222768     -1.652240
  H      -3.635185      1.450414     -0.584742
  H      -3.211126     -2.566393     -1.955095
  H      -4.920300     -1.912970     -3.655830
  H      -1.949845      0.353943     -5.782413
  H      -0.216310     -0.332120     -4.072851
  H       0.644361      0.551673     -0.441676
  H       1.412289      1.159010     -1.953391
  H       3.719602      3.425989     -1.070230
  H       3.587966      5.048759      0.844261
  H       3.234262      4.038577      4.391396
  H       4.732615      4.789649      3.811519
  H       3.167314      5.403556      3.245603
  H       3.962279      1.781704      3.619175
  H       4.093114      0.175453      1.708877
  H       3.091549     -1.606893     -2.509895
  H       2.508024     -2.449476     -1.042098
  H      -0.031051     -4.523663      2.331591
  H       0.113079     -5.656368      0.950528
  H      -1.502292     -5.276268      1.629154
  H      -1.911429     -3.283932      2.769337
60
Coordinates from ORCA-job file E -2653.490768671931
  C      -3.954646     -0.061614      3.683336
  O      -3.236715     -1.230342      3.378749
  C      -2.590330     -1.311735      2.201691
  C      -2.566133     -0.272515      1.264922
  C      -1.864568     -0.463885      0.066537
  O      -1.778569      0.477348     -0.888428
  C      -2.530377      1.658951     -0.774529
  C      -1.228930     -1.683763     -0.207814
  S      -0.307807     -1.957555     -1.741941
  C      -1.625679     -1.474376     -2.893861
  C      -2.918063     -1.959839     -2.708665
  C      -3.908102     -1.650462     -3.635915
  C      -3.585721     -0.862758     -4.741872
  Cl     -4.817593     -0.485114     -5.907257
  C      -2.289950     -0.386825     -4.932298
  C      -1.302629     -0.698580     -3.998961
  C       1.004421     -0.971685     -1.979167
  C       1.292615      0.336684     -1.259900
  N       2.607527     -0.229899     -0.857959
  S       3.995859      0.654219     -1.127602
  O       5.103523     -0.269911     -0.956792
  O       3.902417      1.441896     -2.350927
  C       3.941445      1.783264      0.243892
  C       3.759203      3.141797      0.013103
  C       3.729068      4.010966      1.102809
  C       3.879907      3.534988      2.409136
  C       3.879006      4.480885      3.580913
  C       4.062306      2.158223      2.608233
  C       4.096906      1.278217      1.533842
  C       2.416393     -1.459232     -1.676619
  C      -1.248843     -2.707718      0.759084
  O      -0.611307     -3.845954      0.440910
  C      -0.584146     -4.890295      1.382778
  C      -1.932649     -2.524347      1.959659
  H      -4.748877      0.123368      2.942369
  H      -3.292580      0.818437      3.729938
  H      -4.411015     -0.219759      4.666285
  H      -3.067930      0.670385      1.460626
  H      -2.202022      2.263233      0.086262
  H      -2.358920      2.221558     -1.697885
  H      -3.605298      1.438491     -0.677817
  H      -3.159020     -2.574393     -1.837561
  H      -4.924911     -2.025411     -3.517126
  H      -2.058885      0.217268     -5.810522
  H      -0.271901     -0.351168     -4.110711
  H       0.657977      0.583322     -0.389981
  H       1.392259      1.225515     -1.907297
  H       3.652237      3.498431     -1.012621
  H       3.588249      5.080806      0.934231
  H       3.458365      4.003979      4.476039
  H       4.906733      4.792660      3.822859
  H       3.298401      5.386903      3.362940
  H       4.179195      1.773956      3.623894
  H       4.242878      0.206639      1.679504
  H       3.088885     -1.494768     -2.551190
  H       2.540756     -2.384029     -1.091654
  H      -0.116157     -4.563334      2.324737
  H       0.014715     -5.692365      0.939465
  H      -1.599492     -5.264209      1.592465
  H      -1.991479     -3.294550      2.725163
60
Coordinates from ORCA-job file E -2653.490896034004
  C      -3.916563     -0.077427      3.719154
  O      -3.211274     -1.251409      3.405396
  C      -2.583017     -1.337645      2.218456
  C      -2.564252     -0.298567      1.282438
  C      -1.872849     -0.489830      0.078122
  O      -1.794456      0.454333     -0.874394
  C      -2.554661      1.629892     -0.754744
  C      -1.239397     -1.708078     -0.202592
  S      -0.313495     -1.979139     -1.737842
  C      -1.612854     -1.465925     -2.899852
  C      -2.917610     -1.927804     -2.734000
  C      -3.894715     -1.577336     -3.661035
  C      -3.547889     -0.773439     -4.747544
  Cl     -4.767556     -0.330255     -5.903299
  C      -2.239988     -0.325517     -4.921285
  C      -1.264817     -0.679871     -3.989792
  C       1.012273     -1.004121     -1.960010
  C       1.300832      0.311453     -1.252844
  N       2.612257     -0.253134     -0.840109
  S       4.001619      0.624732     -1.114630
  O       5.107375     -0.296411     -0.916637
  O       3.918324      1.393991     -2.351140
  C       3.932331      1.776196      0.237912
  C       3.752013      3.129975     -0.019304
  C       3.714350      4.019413      1.053783
  C       3.855436      3.567746      2.369926
  C       3.847256      4.535682      3.523346
  C       4.034789      2.194627      2.595742
  C       4.078027      1.294682      1.538169
  C       2.420488     -1.495844     -1.638607
  C      -1.260660     -2.735898      0.760356
  O      -0.628720     -3.876339      0.434316
  C      -0.608172     -4.929656      1.366439
  C      -1.934855     -2.553454      1.967018
  H      -4.722145      0.111506      2.991161
  H      -3.248265      0.798467      3.752432
  H      -4.356898     -0.230083      4.710237
  H      -3.059216      0.646572      1.484228
  H      -2.228011      2.235005      0.106182
  H      -2.391143      2.196169     -1.677457
  H      -3.627498      1.399927     -0.654747
  H      -3.179714     -2.548805     -1.874429
  H      -4.922289     -1.924909     -3.552496
  H      -1.991215      0.295095     -5.782463
  H      -0.226894     -0.351244     -4.086281
  H       0.666473      0.569220     -0.387655
  H       1.405138      1.194634     -1.907661
  H       3.650474      3.466695     -1.052084
  H       3.574097      5.085809      0.864306
  H       3.415083      4.078202      4.423350
  H       4.873808      4.847636      3.770683
  H       3.273643      5.440171      3.281520
  H       4.144335      1.829453      3.619277
  H       4.221957      0.225841      1.704358
  H       3.100891     -1.550491     -2.506289
  H       2.537854     -2.410538     -1.036739
  H      -0.140174     -4.614872      2.312457
  H      -0.013528     -5.730718      0.915579
  H      -1.625537     -5.300608      1.571005
  H      -1.990796     -3.323758      2.732113
60
Coordinates from ORCA-job file E -2653.490855516103
  C      -3.900251     -0.069537      3.721242
  O      -3.209762     -1.251967      3.406133
  C      -2.582149     -1.344370      2.219277
  C      -2.551060     -0.304782      1.284559
  C      -1.859450     -0.502110      0.081360
  O      -1.770300      0.443082     -0.869456
  C      -2.529754      1.619882     -0.755889
  C      -1.236299     -1.725870     -0.199277
  S      -0.303714     -1.994824     -1.731410
  C      -1.600516     -1.479744     -2.898522
  C      -2.906976     -1.939665     -2.738314
  C      -3.884435     -1.568961     -3.657338
  C      -3.536853     -0.747171     -4.730063
  Cl     -4.759392     -0.270946     -5.869733
  C      -2.226061     -0.306545     -4.901890
  C      -1.250392     -0.680550     -3.978413
  C       1.021762     -1.014584     -1.944317
  C       1.307197      0.301116     -1.234848
  N       2.626410     -0.255231     -0.836114
  S       4.004550      0.635921     -1.122171
  O       5.122435     -0.270393     -0.926829
  O       3.906829      1.402745     -2.359142
  C       3.927935      1.788406      0.228970
  C       3.721988      3.138179     -0.028948
  C       3.680494      4.029305      1.042708
  C       3.843489      3.582991      2.358405
  C       3.833507      4.553272      3.509832
  C       4.048287      2.213524      2.584803
  C       4.096257      1.311994      1.528742
  C       2.434983     -1.500595     -1.631126
  C      -1.278406     -2.757865      0.758125
  O      -0.665488     -3.907751      0.428070
  C      -0.665827     -4.965101      1.355856
  C      -1.951213     -2.568531      1.964908
  H      -4.704414      0.129643      2.994227
  H      -3.221580      0.798235      3.754510
  H      -4.341213     -0.217607      4.712762
  H      -3.036038      0.645372      1.486057
  H      -2.208172      2.226208      0.106047
  H      -2.359238      2.184788     -1.678289
  H      -3.603392      1.390563     -0.662925
  H      -3.171684     -2.570257     -1.886883
  H      -4.913979     -1.911247     -3.550546
  H      -1.976237      0.327081     -5.753085
  H      -0.211391     -0.354057     -4.069513
  H       0.682326      0.552331     -0.361818
  H       1.397923      1.187731     -1.887378
  H       3.604843      3.471387     -1.061106
  H       3.519884      5.092694      0.852530
  H       3.414792      4.092423      4.414595
  H       4.858288      4.878051      3.748136
  H       3.246783      5.450012      3.270890
  H       4.174137      1.852058      3.607844
  H       4.260478      0.246198      1.695374
  H       3.110684     -1.555018     -2.502516
  H       2.560539     -2.412911     -1.027365
  H      -0.181972     -4.667759      2.299494
  H      -0.097536     -5.780182      0.896119
  H      -1.691103     -5.309372      1.567152
  H      -2.020551     -3.339688      2.727997
60
Coordinates from ORCA-job file E -2653.490690480785
  C      -3.920043     -0.082038      3.703157
  O      -3.252664     -1.277396      3.386752
  C      -2.616573     -1.375984      2.204815
  C      -2.559832     -0.332841      1.275942
  C      -1.856854     -0.534750      0.080518
  O      -1.748032      0.413325     -0.865901
  C      -2.520393      1.583661     -0.771905
  C      -1.241828     -1.762701     -0.196385
  S      -0.284173     -2.014244     -1.716049
  C      -1.580928     -1.511381     -2.893554
  C      -2.884980     -1.981100     -2.738569
  C      -3.866440     -1.597187     -3.648762
  C      -3.525670     -0.754210     -4.706551
  Cl     -4.757666     -0.253794     -5.826007
  C      -2.215646     -0.309396     -4.876822
  C      -1.235713     -0.695306     -3.962562
  C       1.028837     -1.012234     -1.901618
  C       1.299389      0.308006     -1.192764
  N       2.634600     -0.224066     -0.814725
  S       3.991725      0.691262     -1.122209
  O       5.130774     -0.192766     -0.948674
  O       3.858639      1.464188     -2.352164
  C       3.927803      1.840091      0.231902
  C       3.693473      3.185416     -0.021442
  C       3.684529      4.080585      1.047486
  C       3.908558      3.641762      2.357013
  C       3.943747      4.617951      3.502588
  C       4.137031      2.275111      2.579359
  C       4.154690      1.369848      1.525497
  C       2.452819     -1.477900     -1.599076
  C      -1.325541     -2.805232      0.746133
  O      -0.750293     -3.971898      0.404872
  C      -0.802702     -5.042673      1.315442
  C      -2.007969     -2.610889      1.947430
  H      -4.716021      0.137252      2.972713
  H      -3.224254      0.771528      3.745410
  H      -4.369718     -0.226279      4.691362
  H      -3.033452      0.623293      1.475224
  H      -2.223865      2.196601      0.094226
  H      -2.334362      2.147299     -1.692216
  H      -3.593202      1.342235     -0.702212
  H      -3.147033     -2.623942     -1.896107
  H      -4.895441     -1.941198     -3.542298
  H      -1.970959      0.340316     -5.717128
  H      -0.198479     -0.361626     -4.046204
  H       0.690101      0.548123     -0.306851
  H       1.361712      1.197733     -1.844728
  H       3.533436      3.514638     -1.049026
  H       3.503547      5.141121      0.859829
  H       3.555601      4.163806      4.424443
  H       4.977965      4.938599      3.703371
  H       3.352900      5.515847      3.279210
  H       4.309140      1.918403      3.597447
  H       4.342311      0.307324      1.687995
  H       3.121509     -1.530000     -2.475940
  H       2.598182     -2.382675     -0.988661
  H      -0.288850     -4.792736      2.256858
  H      -0.293452     -5.882996      0.832399
  H      -1.843914     -5.327868      1.536056
  H      -2.106073     -3.386017      2.703160
60
Coordinates from ORCA-job file E -2653.490643829844
  C      -3.993817     -0.133996      3.688244
  O      -3.330457     -1.330071      3.366498
  C      -2.678409     -1.418901      2.192643
  C      -2.605628     -0.366684      1.275251
  C      -1.884987     -0.558198      0.088635
  O      -1.765002      0.397910     -0.848976
  C      -2.552067      1.559394     -0.764897
  C      -1.263657     -1.782171     -0.188882
  S      -0.280308     -2.014704     -1.695984
  C      -1.570249     -1.525292     -2.886620
  C      -2.869611     -2.012085     -2.744440
  C      -3.848021     -1.637199     -3.661774
  C      -3.509024     -0.785851     -4.713383
  Cl     -4.738867     -0.297244     -5.840584
  C      -2.203452     -0.323852     -4.870723
  C      -1.226327     -0.700816     -3.949829
  C       1.021910     -1.000303     -1.859665
  C       1.277279      0.328071     -1.161703
  N       2.622353     -0.182772     -0.788459
  S       3.967706      0.741245     -1.119046
  O       5.114322     -0.138550     -0.972859
  O       3.804222      1.520094     -2.341797
  C       3.941335      1.889366      0.236559
  C       3.724816      3.237490     -0.016465
  C       3.763083      4.138012      1.047320
  C       4.017407      3.700814      2.351740
  C       4.110403      4.681778      3.489677
  C       4.224063      2.330616      2.574447
  C       4.194954      1.420084      1.525531
  C       2.450104     -1.450267     -1.553431
  C      -1.368073     -2.835520      0.739126
  O      -0.790500     -3.999895      0.394671
  C      -0.878717     -5.087252      1.282094
  C      -2.069570     -2.653089      1.931168
  H      -4.777508      0.100506      2.949426
  H      -3.292599      0.713774      3.752130
  H      -4.458874     -0.287796      4.667866
  H      -3.081161      0.588130      1.476246
  H      -2.275371      2.175459      0.105437
  H      -2.358968      2.126116     -1.681850
  H      -3.622539      1.304337     -0.710851
  H      -3.130550     -2.662058     -1.907117
  H      -4.873622     -1.993957     -3.565018
  H      -1.960195      0.332123     -5.706669
  H      -0.192314     -0.355859     -4.026233
  H       0.672623      0.564675     -0.271226
  H       1.321701      1.215100     -1.818598
  H       3.543858      3.565356     -1.041005
  H       3.598129      5.201007      0.858930
  H       3.729985      4.245772      4.423548
  H       5.158864      4.969838      3.664437
  H       3.543468      5.596686      3.274119
  H       4.418225      1.975265      3.589109
  H       4.367797      0.354985      1.687617
  H       3.118678     -1.510617     -2.429625
  H       2.605485     -2.343107     -0.928078
  H      -0.382470     -4.863990      2.239427
  H      -0.370983     -5.924947      0.793106
  H      -1.928274     -5.362011      1.474044
  H      -2.180598     -3.434950      2.678240
60
Coordinates from ORCA-job file E -2653.490720834158
  C      -4.076916     -0.176528      3.673955
  O      -3.413814     -1.370906      3.346857
  C      -2.748317     -1.448508      2.179742
  C      -2.672511     -0.390872      1.267762
  C      -1.937609     -0.572362      0.087758
  O      -1.817286      0.385739     -0.848985
  C      -2.612838      1.542496     -0.771318
  C      -1.299868     -1.789480     -0.183308
  S      -0.294030     -2.011800     -1.676947
  C      -1.572491     -1.543607     -2.885653
  C      -2.860178     -2.062751     -2.763453
  C      -3.828533     -1.727484     -3.705250
  C      -3.490611     -0.879980     -4.761050
  Cl     -4.706167     -0.448783     -5.925997
  C      -2.197150     -0.378852     -4.894217
  C      -1.230020     -0.717715     -3.948835
  C       0.989501     -0.976330     -1.818230
  C       1.214461      0.358051     -1.125494
  N       2.576800     -0.117265     -0.765497
  S       3.901583      0.823608     -1.123241
  O       5.053014     -0.059098     -1.038050
  O       3.684392      1.625648     -2.321868
  C       3.946051      1.953707      0.247156
  C       3.789340      3.313882      0.009887
  C       3.900546      4.202499      1.079012
  C       4.169639      3.741569      2.371685
  C       4.344429      4.705956      3.514118
  C       4.313679      2.361029      2.578616
  C       4.211053      1.461776      1.524967
  C       2.425209     -1.396750     -1.516979
  C      -1.399003     -2.843259      0.743464
  O      -0.789954     -3.993123      0.407541
  C      -0.905880     -5.100646      1.265997
  C      -2.122644     -2.675139      1.923266
  H      -4.854473      0.066660      2.931790
  H      -3.372936      0.668051      3.750447
  H      -4.549299     -0.337449      4.648909
  H      -3.159167      0.558944      1.466489
  H      -2.338778      2.165054      0.095096
  H      -2.423567      2.105409     -1.691459
  H      -3.681456      1.281543     -0.714694
  H      -3.117224     -2.716380     -1.927188
  H      -4.844249     -2.115448     -3.627938
  H      -1.955185      0.273928     -5.733335
  H      -0.203033     -0.348834     -4.013416
  H       0.612010      0.575607     -0.227303
  H       1.227131      1.247155     -1.780681
  H       3.595770      3.657883     -1.007023
  H       3.783211      5.273919      0.903156
  H       3.951163      4.290051      4.451798
  H       5.412219      4.922717      3.673253
  H       3.836172      5.657873      3.313368
  H       4.518900      1.988852      3.584992
  H       4.335609      0.388295      1.674526
  H       3.091857     -1.456440     -2.394205
  H       2.602294     -2.277633     -0.880356
  H      -0.455183     -4.894221      2.249404
  H      -0.366212     -5.921763      0.783090
  H      -1.959540     -5.390087      1.405402
  H      -2.229913     -3.458407      2.669965
60
Coordinates from ORCA-job file E -2653.490827345319
  C      -4.068183     -0.189621      3.702501
  O      -3.396105     -1.377026      3.368329
  C      -2.736998     -1.445474      2.196992
  C      -2.682803     -0.388008      1.282642
  C      -1.958438     -0.562233      0.094684
  O      -1.855314      0.396120     -0.843602
  C      -2.644717      1.555524     -0.747580
  C      -1.315260     -1.774912     -0.183778
  S      -0.317214     -2.003680     -1.682468
  C      -1.583992     -1.516209     -2.891595
  C      -2.876528     -2.024098     -2.779114
  C      -3.829943     -1.697710     -3.738358
  C      -3.471280     -0.869566     -4.803178
  Cl     -4.662463     -0.458849     -5.999714
  C      -2.175255     -0.372794     -4.922248
  C      -1.223550     -0.703699     -3.958855
  C       0.974764     -0.984321     -1.824434
  C       1.200338      0.352761     -1.141377
  N       2.557603     -0.126956     -0.770125
  S       3.890745      0.797759     -1.131087
  O       5.027526     -0.103631     -1.039318
  O       3.682419      1.591301     -2.336906
  C       3.946557      1.934318      0.234936
  C       3.840182      3.298596     -0.010291
  C       3.943988      4.186055      1.060921
  C       4.154734      3.720940      2.362594
  C       4.309438      4.682167      3.511074
  C       4.251768      2.337551      2.576655
  C       4.155242      1.439432      1.521589
  C       2.403591     -1.411312     -1.512467
  C      -1.378698     -2.822325      0.753952
  O      -0.742185     -3.958019      0.422562
  C      -0.818877     -5.060876      1.290947
  C      -2.093742     -2.662837      1.939227
  H      -4.852220      0.048206      2.965681
  H      -3.370631      0.660721      3.775604
  H      -4.532942     -0.356122      4.680151
  H      -3.178363      0.556453      1.486036
  H      -2.351208      2.173136      0.116157
  H      -2.470959      2.120908     -1.669105
  H      -3.713424      1.300469     -0.670915
  H      -3.146322     -2.667425     -1.938409
  H      -4.848246     -2.080508     -3.670888
  H      -1.917816      0.266144     -5.767554
  H      -0.193201     -0.343718     -4.020181
  H       0.588416      0.574854     -0.249459
  H       1.222115      1.239025     -1.799739
  H       3.684584      3.643987     -1.033312
  H       3.863451      5.260090      0.880056
  H       3.867733      4.278881      4.432438
  H       5.375352      4.870669      3.712286
  H       3.836146      5.647797      3.290369
  H       4.410773      1.962767      3.590337
  H       4.236990      0.362756      1.678197
  H       3.076342     -1.482278     -2.384022
  H       2.571240     -2.288023     -0.867372
  H      -0.370195     -4.831717      2.270376
  H      -0.254465     -5.868618      0.813770
  H      -1.862557     -5.381592      1.437942
  H      -2.177944     -3.445232      2.689949
60
Coordinates from ORCA-job file E -2653.491039568052
  C      -3.892620     -0.084622      3.755494
  O      -3.231787     -1.278224      3.420144
  C      -2.621874     -1.371565      2.223493
  C      -2.617518     -0.338636      1.279533
  C      -1.943793     -0.538821      0.066008
  O      -1.871716      0.399622     -0.893811
  C      -2.618930      1.583519     -0.769324
  C      -1.315665     -1.760262     -0.212889
  S      -0.353053     -2.019674     -1.727157
  C      -1.614525     -1.501917     -2.928361
  C      -2.919903     -1.973108     -2.812888
  C      -3.862301     -1.632004     -3.777768
  C      -3.478291     -0.827368     -4.851951
  Cl     -4.651631     -0.398259     -6.059317
  C      -2.169719     -0.364387     -4.972041
  C      -1.230203     -0.709756     -4.001844
  C       0.955745     -1.015761     -1.879441
  C       1.189827      0.309495     -1.176803
  N       2.537042     -0.190740     -0.799803
  S       3.884647      0.722902     -1.129981
  O       5.009191     -0.190018     -1.010468
  O       3.710900      1.513006     -2.342768
  C       3.898182      1.856509      0.239999
  C       3.776915      3.221444      0.001552
  C       3.825051      4.099716      1.084053
  C       3.995094      3.627815      2.389233
  C       4.077184      4.581277      3.552166
  C       4.114243      2.245042      2.595653
  C       4.070500      1.355630      1.529469
  C       2.378387     -1.457928     -1.569422
  C      -1.317829     -2.778130      0.759425
  O      -0.674269     -3.912846      0.434994
  C      -0.660529     -4.974218      1.357376
  C      -1.977587     -2.589201      1.972060
  H      -4.713681      0.129784      3.052396
  H      -3.196340      0.769837      3.768905
  H      -4.307378     -0.225113      4.759366
  H      -3.107398      0.609057      1.481851
  H      -2.267774      2.192458      0.079329
  H      -2.468491      2.139881     -1.700368
  H      -3.691566      1.365937     -0.644916
  H      -3.208110     -2.597269     -1.963835
  H      -4.890842     -1.985913     -3.708359
  H      -1.893253      0.258677     -5.822922
  H      -0.191897     -0.371342     -4.057507
  H       0.567214      0.526251     -0.291613
  H       1.229923      1.204245     -1.823102
  H       3.646689      3.572284     -1.023245
  H       3.729713      5.173705      0.909923
  H       3.615747      4.154045      4.452643
  H       5.128483      4.802917      3.792952
  H       3.581497      5.534472      3.324502
  H       4.243709      1.864291      3.611164
  H       4.164494      0.279211      1.681002
  H       3.054797     -1.515686     -2.439343
  H       2.535165     -2.350217     -0.943047
  H      -0.152973     -4.686565      2.291886
  H      -0.106079     -5.790224      0.882242
  H      -1.683106     -5.311850      1.590346
  H      -2.017706     -3.351404      2.746636
60
Coordinates from ORCA-job file E -2653.491111736422
  C      -3.895316     -0.110817      3.765939
  O      -3.243846     -1.307630      3.423101
  C      -2.630716     -1.396935      2.228213
  C      -2.614009     -0.356344      1.293899
  C      -1.938257     -0.551505      0.081062
  O      -1.858455      0.394789     -0.869732
  C      -2.601235      1.580199     -0.737331
  C      -1.317780     -1.774047     -0.207635
  S      -0.347181     -2.020844     -1.719923
  C      -1.603180     -1.494029     -2.925027
  C      -2.913012     -1.958561     -2.820817
  C      -3.851151     -1.593272     -3.781972
  C      -3.459028     -0.773059     -4.840821
  Cl     -4.628928     -0.308858     -6.038936
  C      -2.145285     -0.323047     -4.953289
  C      -1.209755     -0.691980     -3.987569
  C       0.969442     -1.026768     -1.861559
  C       1.212726      0.302123     -1.167968
  N       2.553936     -0.206124     -0.781868
  S       3.907257      0.698272     -1.118559
  O       5.032840     -0.209708     -0.978229
  O       3.746024      1.471416     -2.344474
  C       3.903913      1.851461      0.234255
  C       3.749714      3.208376     -0.024189
  C       3.787128      4.104995      1.043111
  C       3.978906      3.658031      2.354352
  C       4.055038      4.632221      3.499975
  C       4.128985      2.281422      2.581707
  C       4.097537      1.374377      1.530006
  C       2.387281     -1.479912     -1.537354
  C      -1.339500     -2.804550      0.751951
  O      -0.717679     -3.948178      0.416094
  C      -0.710679     -5.011811      1.335787
  C      -1.998674     -2.619360      1.966084
  H      -4.710348      0.117862      3.060253
  H      -3.191932      0.737371      3.791883
  H      -4.317503     -0.257319      4.765802
  H      -3.096763      0.593554      1.502753
  H      -2.249250      2.182501      0.115649
  H      -2.448386      2.142757     -1.664221
  H      -3.674563      1.363935     -0.615377
  H      -3.209373     -2.590993     -1.981112
  H      -4.883269     -1.938411     -3.719542
  H      -1.862102      0.311294     -5.793471
  H      -0.169471     -0.360364     -4.035774
  H       0.590437      0.531660     -0.286043
  H       1.262475      1.191786     -1.820572
  H       3.606867      3.540719     -1.053423
  H       3.667562      5.173701      0.852280
  H       3.613264      4.209859      4.412576
  H       5.104181      4.879896      3.724760
  H       3.536154      5.570269      3.262685
  H       4.276534      1.919508      3.601664
  H       4.219246      0.302906      1.697214
  H       3.068880     -1.552735     -2.402325
  H       2.531290     -2.366924     -0.900431
  H      -0.184807     -4.735452      2.263446
  H      -0.179436     -5.836948      0.850158
  H      -1.735868     -5.331607      1.582472
  H      -2.050882     -3.389169      2.731912
60
Coordinates from ORCA-job file E -2653.490926509176
  C      -3.957090     -0.172701      3.754111
  O      -3.322727     -1.375747      3.401663
  C      -2.692611     -1.457680      2.215415
  C      -2.639757     -0.401916      1.300519
  C      -1.942679     -0.587967      0.098563
  O      -1.836023      0.371607     -0.836697
  C      -2.592004      1.549997     -0.716742
  C      -1.328610     -1.811846     -0.196336
  S      -0.327334     -2.029112     -1.693640
  C      -1.577939     -1.510666     -2.911772
  C      -2.888446     -1.977758     -2.817802
  C      -3.824223     -1.595835     -3.775798
  C      -3.430176     -0.757890     -4.819363
  Cl     -4.601625     -0.269113     -6.006759
  C      -2.114691     -0.311189     -4.924913
  C      -1.180914     -0.695265     -3.963214
  C       0.981769     -1.021484     -1.803054
  C       1.218465      0.312068     -1.113410
  N       2.569028     -0.181309     -0.738622
  S       3.907934      0.737155     -1.102300
  O       5.051205     -0.149415     -0.973279
  O       3.721438      1.504761     -2.328471
  C       3.915612      1.902803      0.237959
  C       3.719806      3.250645     -0.033475
  C       3.791911      4.166949      1.014814
  C       4.060329      3.746242      2.321626
  C       4.191541      4.742628      3.442257
  C       4.245444      2.376245      2.563630
  C       4.182328      1.450190      1.530085
  C       2.404561     -1.466121     -1.476090
  C      -1.405956     -2.866156      0.733733
  O      -0.820788     -4.023619      0.379782
  C      -0.874616     -5.109865      1.270885
  C      -2.083743     -2.689155      1.939655
  H      -4.757810      0.082261      3.040986
  H      -3.239789      0.662370      3.805383
  H      -4.396844     -0.328675      4.744936
  H      -3.111321      0.551988      1.515476
  H      -2.268657      2.151874      0.147610
  H      -2.419510      2.119197     -1.636190
  H      -3.665759      1.321239     -0.624908
  H      -3.188643     -2.620845     -1.988061
  H      -4.857267     -1.939778     -3.720314
  H      -1.829634      0.335427     -5.754988
  H      -0.140498     -0.363650     -4.002223
  H       0.608655      0.539769     -0.222940
  H       1.250672      1.200702     -1.768731
  H       3.528094      3.564278     -1.060498
  H       3.644278      5.229833      0.811759
  H       3.799477      4.335912      4.384446
  H       5.249912      4.997330      3.608713
  H       3.656077      5.673006      3.213706
  H       4.453223      2.034353      3.580139
  H       4.340502      0.385047      1.706823
  H       3.085248     -1.548760     -2.340967
  H       2.553421     -2.342908     -0.826309
  H      -0.348222     -4.882161      2.211191
  H      -0.377744     -5.945759      0.767764
  H      -1.915934     -5.389256      1.497354
  H      -2.171347     -3.472276      2.688384
60
Coordinates from ORCA-job file E -2653.490924575009
  C      -3.997686     -0.191216      3.744535
  O      -3.363747     -1.393866      3.390568
  C      -2.726285     -1.471205      2.207769
  C      -2.670475     -0.413106      1.295377
  C      -1.964934     -0.594740      0.097545
  O      -1.855390      0.366497     -0.836055
  C      -2.618538      1.540972     -0.721571
  C      -1.343820     -1.815722     -0.194424
  S      -0.332134     -2.027289     -1.684989
  C      -1.577913     -1.519165     -2.911556
  C      -2.883953     -1.998988     -2.825777
  C      -3.815548     -1.631347     -3.793145
  C      -3.421573     -0.794045     -4.837356
  Cl     -4.587694     -0.324989     -6.037784
  C      -2.110620     -0.332182     -4.933177
  C      -1.180976     -0.702572     -3.962402
  C       0.968636     -1.009729     -1.784525
  C       1.193896      0.325089     -1.094565
  N       2.551823     -0.154626     -0.726821
  S       3.881254      0.771610     -1.104215
  O       5.027251     -0.115377     -1.002121
  O       3.670301      1.549366     -2.319833
  C       3.919367      1.929097      0.242636
  C       3.731674      3.280231     -0.019435
  C       3.834723      4.191534      1.030740
  C       4.127054      3.762669      2.329488
  C       4.293149      4.752894      3.450988
  C       4.303160      2.389885      2.562263
  C       4.208781      1.468529      1.526949
  C       2.394518     -1.443434     -1.460186
  C      -1.422180     -2.871154      0.733927
  O      -0.823293     -4.023000      0.384657
  C      -0.886031     -5.114853      1.268386
  C      -2.111027     -2.699728      1.934206
  H      -4.794159      0.068476      3.028418
  H      -3.278686      0.641971      3.803208
  H      -4.442985     -0.350422      4.732409
  H      -3.146927      0.538748      1.508895
  H      -2.306300      2.143694      0.146282
  H      -2.440400      2.112012     -1.638832
  H      -3.691863      1.306703     -0.639763
  H      -3.183155     -2.643415     -1.996629
  H      -4.845044     -1.986679     -3.745363
  H      -1.825939      0.314237     -5.763572
  H      -0.143375     -0.361346     -3.995642
  H       0.586402      0.544210     -0.200041
  H       1.212976      1.215397     -1.748051
  H       3.521709      3.599625     -1.041084
  H       3.693455      5.256653      0.835103
  H       3.911222      4.349164      4.398624
  H       5.358164      4.990066      3.599735
  H       3.768577      5.692440      3.234846
  H       4.529195      2.042227      3.572887
  H       4.360402      0.401257      1.695998
  H       3.074478     -1.525360     -2.325493
  H       2.551140     -2.316095     -0.806634
  H      -0.382163     -4.887303      2.220982
  H      -0.369838     -5.943025      0.772019
  H      -1.929094     -5.405482      1.471096
  H      -2.199564     -3.483794      2.682003
60
Coordinates from ORCA-job file E -2653.490709914824
  C      -4.029476     -0.195568      3.752085
  O      -3.387930     -1.393017      3.395524
  C      -2.754945     -1.463693      2.209034
  C      -2.730892     -0.412839      1.285022
  C      -2.031489     -0.590847      0.082236
  O      -1.942712      0.363225     -0.861658
  C      -2.706008      1.537433     -0.741756
  C      -1.390862     -1.804105     -0.202198
  S      -0.375793     -2.022481     -1.687031
  C      -1.601394     -1.519541     -2.930160
  C      -2.901439     -2.013002     -2.865895
  C      -3.808360     -1.691042     -3.870785
  C      -3.393993     -0.882476     -4.930592
  Cl     -4.522717     -0.482884     -6.189705
  C      -2.091675     -0.392538     -4.996306
  C      -1.187337     -0.719640     -3.987740
  C       0.912133     -0.991999     -1.771422
  C       1.106997      0.341654     -1.075877
  N       2.478228     -0.109719     -0.718512
  S       3.791319      0.825365     -1.118453
  O       4.926619     -0.081746     -1.078190
  O       3.531758      1.628504     -2.306998
  C       3.908088      1.956087      0.248605
  C       3.782027      3.321373      0.014003
  C       3.942588      4.205437      1.080946
  C       4.231891      3.737920      2.366006
  C       4.446251      4.696199      3.507891
  C       4.349928      2.354473      2.569843
  C       4.195843      1.459183      1.518982
  C       2.340357     -1.402910     -1.451775
  C      -1.415766     -2.840881      0.749123
  O      -0.757697     -3.965935      0.420230
  C      -0.771315     -5.049639      1.316440
  C      -2.105851     -2.676494      1.948331
  H      -4.835009      0.055511      3.043357
  H      -3.315477      0.642941      3.800174
  H      -4.463501     -0.354393      4.745119
  H      -3.227740      0.529958      1.493482
  H      -2.388631      2.138579      0.125500
  H      -2.533074      2.109200     -1.659514
  H      -3.779188      1.305747     -0.653484
  H      -3.210406     -2.643790     -2.029119
  H      -4.832150     -2.063747     -3.845098
  H      -1.792916      0.234224     -5.836951
  H      -0.152686     -0.366433     -4.005191
  H       0.494906      0.535025     -0.177045
  H       1.102105      1.238676     -1.719997
  H       3.565724      3.667679     -0.997513
  H       3.846474      5.279698      0.909144
  H       4.040707      4.296006      4.447031
  H       5.521799      4.873677      3.662134
  H       3.973999      5.667449      3.309638
  H       4.573017      1.978785      3.570877
  H       4.295477      0.382846      1.666695
  H       3.022817     -1.479308     -2.314899
  H       2.511160     -2.269899     -0.793965
  H      -0.300950     -4.780656      2.275534
  H      -0.192973     -5.849963      0.843256
  H      -1.798689     -5.400085      1.503837
  H      -2.161168     -3.451588      2.709253
60
Coordinates from ORCA-job file E -2653.490913345416
  C      -3.997563     -0.170746      3.754022
  O      -3.348140     -1.365946      3.403625
  C      -2.724399     -1.442713      2.212632
  C      -2.712765     -0.398540      1.281268
  C      -2.023425     -0.582099      0.073767
  O      -1.942455      0.367788     -0.874651
  C      -2.693781      1.548524     -0.745957
  C      -1.383850     -1.796120     -0.210171
  S      -0.379137     -2.019354     -1.700982
  C      -1.610475     -1.513655     -2.937928
  C      -2.912077     -2.003287     -2.868142
  C      -3.824240     -1.673386     -3.866084
  C      -3.413896     -0.861059     -4.924202
  Cl     -4.550007     -0.449682     -6.173038
  C      -2.109200     -0.377772     -4.997160
  C      -1.199445     -0.712861     -3.995736
  C       0.916655     -0.997211     -1.794650
  C       1.123655      0.335043     -1.098413
  N       2.486764     -0.132060     -0.731389
  S       3.812963      0.791362     -1.118544
  O       4.942650     -0.121312     -1.056351
  O       3.578610      1.588951     -2.316311
  C       3.907268      1.925246      0.247688
  C       3.771545      3.289102      0.012004
  C       3.905480      4.173622      1.082084
  C       4.176804      3.708367      2.372158
  C       4.361773      4.668285      3.517815
  C       4.305332      2.326007      2.577113
  C       4.178084      1.430352      1.522727
  C       2.340624     -1.420881     -1.469898
  C      -1.395994     -2.826727      0.748503
  O      -0.737724     -3.952659      0.421822
  C      -0.717506     -5.018520      1.339172
  C      -2.072515     -2.654671      1.954660
  H      -4.811486      0.065725      3.049681
  H      -3.291437      0.675022      3.787646
  H      -4.421888     -0.323834      4.752121
  H      -3.210174      0.544139      1.488372
  H      -2.360398      2.146742      0.117352
  H      -2.527229      2.118622     -1.665920
  H      -3.767903      1.326383     -0.644364
  H      -3.219025     -2.634285     -2.030971
  H      -4.849541     -2.041709     -3.835224
  H      -1.813331      0.251802     -5.836595
  H      -0.164255     -0.361932     -4.016129
  H       0.507673      0.537237     -0.204678
  H       1.134951      1.231098     -1.743926
  H       3.568956      3.634623     -1.002624
  H       3.801883      5.247046      0.909261
  H       3.949891      4.260598      4.450996
  H       5.432411      4.862078      3.686641
  H       3.877370      5.632518      3.314530
  H       4.514492      1.951294      3.581539
  H       4.285814      0.354908      1.671626
  H       3.025430     -1.498635     -2.331193
  H       2.500791     -2.292709     -0.815802
  H      -0.230963     -4.723729      2.282559
  H      -0.138331     -5.820264      0.869457
  H      -1.735730     -5.379307      1.554684
  H      -2.117586     -3.424814      2.721008
60
Coordinates from ORCA-job file E -2653.491007175482
  C      -3.926566     -0.171655      3.781544
  O      -3.273676     -1.364314      3.427767
  C      -2.672342     -1.446777      2.226310
  C      -2.671219     -0.403789      1.295092
  C      -2.002519     -0.590332      0.076942
  O      -1.929129      0.362361     -0.868303
  C      -2.661519      1.551705     -0.718199
  C      -1.378636     -1.808509     -0.222193
  S      -0.383644     -2.028272     -1.721449
  C      -1.611130     -1.488903     -2.949905
  C      -2.929113     -1.936621     -2.875509
  C      -3.839855     -1.555851     -3.857834
  C      -3.412556     -0.739139     -4.905148
  Cl     -4.550109     -0.258006     -6.128067
  C      -2.091071     -0.305452     -4.986592
  C      -1.182625     -0.688890     -4.000840
  C       0.934005     -1.033118     -1.810000
  C       1.161645      0.302395     -1.123972
  N       2.501339     -0.196359     -0.717543
  S       3.857279      0.694948     -1.081627
  O       4.975367     -0.222448     -0.944590
  O       3.688194      1.456316     -2.313949
  C       3.892509      1.867655      0.253117
  C       3.736772      3.220001     -0.024121
  C       3.824209      4.136428      1.023016
  C       4.067516      3.713089      2.333661
  C       4.208986      4.709413      3.453593
  C       4.214675      2.339429      2.581160
  C       4.135081      1.412934      1.548937
  C       2.342134     -1.487708     -1.446512
  C      -1.387002     -2.843052      0.733383
  O      -0.756383     -3.980222      0.391429
  C      -0.685796     -5.024181      1.330961
  C      -2.034182     -2.664122      1.955167
  H      -4.754184      0.052788      3.089104
  H      -3.228991      0.681473      3.797931
  H      -4.333584     -0.322353      4.787111
  H      -3.157356      0.542283      1.512045
  H      -2.303788      2.140502      0.141809
  H      -2.505992      2.125261     -1.637780
  H      -3.736223      1.341895     -0.596829
  H      -3.252134     -2.565028     -2.042887
  H      -4.878547     -1.884585     -3.819999
  H      -1.781608      0.327637     -5.818353
  H      -0.137163     -0.371985     -4.023545
  H       0.531173      0.535458     -0.248614
  H       1.214181      1.188648     -1.780999
  H       3.561223      3.535018     -1.053740
  H       3.707361      5.202505      0.816232
  H       3.788953      4.318434      4.390373
  H       5.271290      4.933866      3.637377
  H       3.705714      5.654921      3.213434
  H       4.402804      1.995480      3.600782
  H       4.262327      0.344439      1.730486
  H       3.045184     -1.587625     -2.291175
  H       2.464940     -2.358221     -0.782670
  H      -0.158229     -4.703568      2.243305
  H      -0.125519     -5.833520      0.851440
  H      -1.690253     -5.387423      1.600691
  H      -2.072219     -3.435257      2.720243
60
Coordinates from ORCA-job file E -2653.491058967819
  C      -3.927144     -0.161587      3.780126
  O      -3.287195     -1.360388      3.423671
  C      -2.678471     -1.443858      2.226229
  C      -2.658967     -0.396534      1.299921
  C      -1.984134     -0.585102      0.085401
  O      -1.900302      0.368493     -0.858177
  C      -2.635078      1.557532     -0.716506
  C      -1.366310     -1.806851     -0.212496
  S      -0.368815     -2.028680     -1.709629
  C      -1.601377     -1.502828     -2.940609
  C      -2.912442     -1.970732     -2.871045
  C      -3.827436     -1.597328     -3.852134
  C      -3.411214     -0.766693     -4.893225
  Cl     -4.554711     -0.290940     -6.112749
  C      -2.095663     -0.315285     -4.971411
  C      -1.182849     -0.691854     -3.987263
  C       0.943972     -1.025582     -1.802924
  C       1.171808      0.307393     -1.112107
  N       2.518948     -0.185480     -0.722478
  S       3.863099      0.721007     -1.094884
  O       4.994090     -0.182853     -0.975027
  O       3.674006      1.488893     -2.320226
  C       3.897653      1.885939      0.246556
  C       3.716628      3.237238     -0.020286
  C       3.803785      4.149163      1.030893
  C       4.072628      3.721961      2.335227
  C       4.214487      4.713538      3.459298
  C       4.244856      2.349351      2.572293
  C       4.166052      1.427457      1.536062
  C       2.358693     -1.474284     -1.455641
  C      -1.398772     -2.847648      0.735471
  O      -0.790983     -3.994627      0.386449
  C      -0.762733     -5.055454      1.309209
  C      -2.054271     -2.667930      1.952608
  H      -4.746041      0.078309      3.082576
  H      -3.218418      0.681951      3.808121
  H      -4.344005     -0.313741      4.781406
  H      -3.138496      0.553102      1.516377
  H      -2.285069      2.148437      0.145136
  H      -2.471972      2.129655     -1.635748
  H      -3.710479      1.346516     -0.604075
  H      -3.227224     -2.610787     -2.044012
  H      -4.860656     -1.943398     -3.818515
  H      -1.794300      0.326911     -5.799236
  H      -0.141813     -0.359982     -4.006744
  H       0.550520      0.532548     -0.227991
  H       1.210879      1.197459     -1.764821
  H       3.522744      3.555637     -1.045522
  H       3.667196      5.214374      0.832030
  H       3.813780      4.310201      4.399337
  H       5.275772      4.952799      3.629638
  H       3.693380      5.652550      3.232130
  H       4.453366      2.002624      3.586973
  H       4.313199      0.360138      1.709216
  H       3.053987     -1.567763     -2.307418
  H       2.492180     -2.346726     -0.796322
  H      -0.231538     -4.768191      2.230408
  H      -0.227183     -5.875523      0.819749
  H      -1.780800     -5.388869      1.566188
  H      -2.110849     -3.443678      2.712019
60
Coordinates from ORCA-job file E -2653.490832412137
  C      -4.000470     -0.178020      3.761537
  O      -3.382000     -1.385671      3.398837
  C      -2.749234     -1.462632      2.213040
  C      -2.702279     -0.406938      1.295681
  C      -2.005173     -0.592199      0.092829
  O      -1.901920      0.363093     -0.848260
  C      -2.649740      1.547081     -0.727758
  C      -1.382335     -1.814021     -0.195551
  S      -0.361220     -2.028060     -1.676058
  C      -1.589079     -1.535792     -2.924924
  C      -2.882787     -2.047266     -2.872322
  C      -3.790603     -1.721413     -3.875618
  C      -3.383880     -0.890049     -4.920657
  Cl     -4.515712     -0.479043     -6.173688
  C      -2.085852     -0.388077     -4.977834
  C      -1.180036     -0.719697     -3.972005
  C       0.926024     -0.991124     -1.754483
  C       1.126571      0.336888     -1.048374
  N       2.504016     -0.112413     -0.710898
  S       3.803497      0.838726     -1.124673
  O       4.956070     -0.046269     -1.094050
  O       3.525163      1.639356     -2.310840
  C       3.908140      1.969927      0.242436
  C       3.722132      3.329226      0.015648
  C       3.873163      4.217111      1.080813
  C       4.212756      3.758581      2.356947
  C       4.420499      4.722240      3.495420
  C       4.389703      2.380273      2.553406
  C       4.246901      1.481558      1.503945
  C       2.359120     -1.402203     -1.448640
  C      -1.445671     -2.862467      0.741189
  O      -0.839254     -4.010160      0.392419
  C      -0.883776     -5.101340      1.278615
  C      -2.131821     -2.689885      1.941735
  H      -4.799666      0.093147      3.052899
  H      -3.270613      0.646099      3.816673
  H      -4.439394     -0.335011      4.752638
  H      -3.182435      0.543750      1.507585
  H      -2.324182      2.143946      0.139324
  H      -2.468779      2.117444     -1.644980
  H      -3.725754      1.328465     -0.639891
  H      -3.187170     -2.694335     -2.046424
  H      -4.809427     -2.108309     -3.859268
  H      -1.792302      0.254284     -5.808422
  H      -0.149718     -0.353428     -3.978534
  H       0.528432      0.521700     -0.138895
  H       1.109051      1.239661     -1.684122
  H       3.470516      3.670035     -0.989420
  H       3.731082      5.287060      0.914240
  H       4.052332      4.305888      4.443030
  H       5.492559      4.937286      3.624601
  H       3.908733      5.675857      3.310746
  H       4.653951      2.011425      3.546949
  H       4.395202      0.409949      1.645185
  H       3.035828     -1.476427     -2.316528
  H       2.533937     -2.271379     -0.794559
  H      -0.375412     -4.867201      2.227239
  H      -0.361220     -5.924698      0.780671
  H      -1.922088     -5.402609      1.489859
  H      -2.214378     -3.471921      2.693036
60
Coordinates from ORCA-job file E -2653.490966848356
  C      -3.985637     -0.189307      3.771368
  O      -3.352021     -1.389855      3.410454
  C      -2.728197     -1.464955      2.219893
  C      -2.696388     -0.411075      1.300468
  C      -2.007026     -0.592822      0.092795
  O      -1.913240      0.364381     -0.846865
  C      -2.655181      1.550168     -0.712319
  C      -1.383184     -1.812277     -0.202229
  S      -0.369925     -2.025715     -1.689183
  C      -1.595461     -1.512799     -2.931110
  C      -2.899545     -1.998660     -2.872881
  C      -3.806063     -1.652576     -3.871044
  C      -3.387862     -0.828810     -4.917170
  Cl     -4.518460     -0.392802     -6.162974
  C      -2.080086     -0.353312     -4.980359
  C      -1.175736     -0.704022     -3.979314
  C       0.929625     -1.006578     -1.769157
  C       1.140976      0.325689     -1.073949
  N       2.505012     -0.142263     -0.710696
  S       3.826432      0.783568     -1.112809
  O       4.965519     -0.116159     -1.041570
  O       3.587804      1.566043     -2.319965
  C       3.908465      1.933828      0.239918
  C       3.740047      3.290803     -0.009940
  C       3.867000      4.191423      1.047362
  C       4.163509      3.747764      2.339694
  C       4.344409      4.725616      3.470504
  C       4.323473      2.370834      2.559457
  C       4.204498      1.459753      1.517552
  C       2.352825     -1.435241     -1.440036
  C      -1.427174     -2.858278      0.739042
  O      -0.809551     -4.000589      0.391844
  C      -0.813884     -5.077821      1.295838
  C      -2.101390     -2.687369      1.946775
  H      -4.793872      0.065830      3.066984
  H      -3.268431      0.646407      3.816583
  H      -4.415409     -0.347367      4.766302
  H      -3.179525      0.537092      1.516130
  H      -2.319045      2.140714      0.155133
  H      -2.481770      2.125126     -1.627969
  H      -3.731094      1.334967     -0.614674
  H      -3.213748     -2.637240     -2.044226
  H      -4.833364     -2.016274     -3.848684
  H      -1.777717      0.284076     -5.811576
  H      -0.138868     -0.358011     -3.990973
  H       0.530655      0.529631     -0.176754
  H       1.149607      1.221770     -1.719339
  H       3.521197      3.620420     -1.026459
  H       3.739291      5.260196      0.862335
  H       3.948492      4.323339      4.413002
  H       5.413347      4.938680      3.626535
  H       3.841940      5.678607      3.259393
  H       4.554059      2.012675      3.565280
  H       4.339289      0.388857      1.677422
  H       3.040083     -1.523619     -2.298467
  H       2.506485     -2.302565     -0.778258
  H      -0.303626     -4.812558      2.235282
  H      -0.272375     -5.893835      0.806175
  H      -1.840944     -5.405830      1.521868
  H      -2.168244     -3.467674      2.701060
60
Coordinates from ORCA-job file E -2653.490969086118
  C      -3.939309     -0.171660      3.785781
  O      -3.304491     -1.371783      3.425199
  C      -2.698970     -1.453717      2.225573
  C      -2.687516     -0.407671      1.297189
  C      -2.015840     -0.595509      0.080596
  O      -1.936406      0.356580     -0.865279
  C      -2.664373      1.549258     -0.718376
  C      -1.394855     -1.815837     -0.216668
  S      -0.387703     -2.032378     -1.706815
  C      -1.606645     -1.506760     -2.949805
  C      -2.916474     -1.978172     -2.895584
  C      -3.817265     -1.617506     -3.894265
  C      -3.387563     -0.795319     -4.936691
  Cl     -4.511886     -0.339481     -6.181315
  C      -2.074004     -0.334992     -4.996084
  C      -1.175448     -0.699830     -3.994681
  C       0.918237     -1.020612     -1.780822
  C       1.129518      0.312674     -1.086957
  N       2.485485     -0.162886     -0.705643
  S       3.817956      0.750157     -1.098671
  O       4.948240     -0.158792     -1.009558
  O       3.598769      1.526814     -2.313152
  C       3.890434      1.907311      0.248648
  C       3.728743      3.263312     -0.009371
  C       3.847447      4.168322      1.044933
  C       4.129044      3.730320      2.342690
  C       4.301632      4.713481      3.470144
  C       4.282676      2.353983      2.570684
  C       4.171885      1.438564      1.531572
  C       2.334612     -1.457223     -1.432859
  C      -1.415145     -2.853193      0.735232
  O      -0.792671     -3.993827      0.389917
  C      -0.744921     -5.048936      1.318478
  C      -2.068699     -2.674562      1.953332
  H      -4.760695      0.072036      3.092528
  H      -3.227160      0.669174      3.811469
  H      -4.352080     -0.323334      4.788885
  H      -3.170641      0.540152      1.513711
  H      -2.307213      2.136786      0.142763
  H      -2.502039      2.121956     -1.637413
  H      -3.740464      1.344617     -0.601269
  H      -3.239869     -2.613749     -2.068363
  H      -4.849421     -1.967381     -3.874296
  H      -1.763175      0.302778     -5.823786
  H      -0.135252     -0.364366     -4.001001
  H       0.509490      0.523943     -0.198426
  H       1.152912      1.206756     -1.734984
  H       3.522428      3.588921     -1.029868
  H       3.725209      5.236640      0.853520
  H       3.894678      4.317333      4.410530
  H       5.369504      4.924351      3.636446
  H       3.804465      5.666939      3.249086
  H       4.501093      1.999690      3.580611
  H       4.303003      0.368139      1.697706
  H       3.032138     -1.551899     -2.282388
  H       2.474721     -2.323721     -0.766966
  H      -0.213169     -4.749056      2.235415
  H      -0.199401     -5.864054      0.831712
  H      -1.756878     -5.394777      1.582695
  H      -2.116675     -3.448001      2.715810
60
Coordinates from ORCA-job file E -2653.490932407537
  C      -3.954512     -0.184189      3.786827
  O      -3.321182     -1.384340      3.423981
  C      -2.712830     -1.463495      2.225664
  C      -2.697381     -0.414568      1.300472
  C      -2.023178     -0.599881      0.084853
  O      -1.940363      0.354576     -0.858460
  C      -2.666771      1.548051     -0.710128
  C      -1.401597     -1.819571     -0.213597
  S      -0.388445     -2.031654     -1.700218
  C      -1.603575     -1.508324     -2.947580
  C      -2.911551     -1.985286     -2.900448
  C      -3.808224     -1.628887     -3.904313
  C      -3.376263     -0.804849     -4.944429
  Cl     -4.495138     -0.354934     -6.196092
  C      -2.064600     -0.338588     -4.996409
  C      -1.170089     -0.699499     -3.990086
  C       0.915228     -1.017304     -1.768044
  C       1.122813      0.316449     -1.074524
  N       2.481996     -0.153442     -0.697111
  S       3.809399      0.762977     -1.099767
  O       4.941944     -0.144225     -1.020894
  O       3.578505      1.540513     -2.311583
  C       3.893494      1.919891      0.247146
  C       3.729747      3.275902     -0.009848
  C       3.858937      4.181465      1.042819
  C       4.153235      3.743865      2.337822
  C       4.336966      4.727350      3.463265
  C       4.308663      2.367531      2.564904
  C       4.187369      1.451599      1.527454
  C       2.332403     -1.450546     -1.419883
  C      -1.427166     -2.860196      0.734535
  O      -0.806841     -4.001028      0.386625
  C      -0.769753     -5.062595      1.308243
  C      -2.084186     -2.684706      1.951097
  H      -4.773974      0.063293      3.092689
  H      -3.240614      0.655028      3.816653
  H      -4.369650     -0.338135      4.788600
  H      -3.179746      0.533330      1.518593
  H      -2.309210      2.133706      0.152108
  H      -2.502938      2.122057     -1.628085
  H      -3.743174      1.344682     -0.593952
  H      -3.236448     -2.622917     -2.075309
  H      -4.838754     -1.983783     -3.890405
  H      -1.751884      0.300246     -5.822609
  H      -0.130976     -0.360517     -3.991817
  H       0.504832      0.524270     -0.183549
  H       1.140106      1.211147     -1.721727
  H       3.513564      3.601020     -1.028432
  H       3.735131      5.249719      0.852097
  H       3.935940      4.332969      4.406956
  H       5.406645      4.935218      3.621419
  H       3.840799      5.682045      3.245266
  H       4.537257      2.013802      3.572769
  H       4.319739      0.381198      1.692789
  H       3.030028     -1.547632     -2.268944
  H       2.474221     -2.314037     -0.750381
  H      -0.241798     -4.771750      2.230262
  H      -0.225451     -5.877032      0.819004
  H      -1.784793     -5.405355      1.564344
  H      -2.135904     -3.460633      2.710866
60
Coordinates from ORCA-job file E -2653.490801516024
  C      -3.967190     -0.198155      3.794630
  O      -3.338385     -1.398946      3.426649
  C      -2.731614     -1.475545      2.227367
  C      -2.715235     -0.423939      1.304917
  C      -2.043395     -0.607580      0.087599
  O      -1.960131      0.348351     -0.854435
  C      -2.672930      1.548826     -0.696974
  C      -1.422938     -1.827262     -0.213593
  S      -0.399227     -2.032772     -1.693004
  C      -1.602988     -1.513265     -2.951778
  C      -2.906456     -2.002829     -2.923905
  C      -3.790884     -1.656217     -3.941930
  C      -3.351164     -0.828066     -4.975684
  Cl     -4.454262     -0.391036     -6.245833
  C      -2.044237     -0.347305     -5.006980
  C      -1.161739     -0.699474     -3.987281
  C       0.899658     -1.012527     -1.745250
  C       1.096132      0.321685     -1.050497
  N       2.461214     -0.135560     -0.677494
  S       3.778830      0.786069     -1.100021
  O       4.912888     -0.121246     -1.044499
  O       3.523617      1.567128     -2.304688
  C       3.891198      1.940415      0.247396
  C       3.724429      3.297278     -0.004314
  C       3.876909      4.201349      1.046716
  C       4.197832      3.761496      2.334438
  C       4.405085      4.742944      3.457722
  C       4.356362      2.384575      2.556299
  C       4.211745      1.470116      1.520558
  C       2.316831     -1.438688     -1.391484
  C      -1.450040     -2.870369      0.731664
  O      -0.831134     -4.010623      0.380087
  C      -0.794311     -5.075840      1.297502
  C      -2.105950     -2.697353      1.948835
  H      -4.787262      0.054435      3.103101
  H      -3.250235      0.638427      3.825904
  H      -4.380929     -0.354150      4.796673
  H      -3.195743      0.524242      1.526221
  H      -2.300738      2.128646      0.163066
  H      -2.511551      2.123172     -1.615158
  H      -3.750179      1.356665     -0.570768
  H      -3.236426     -2.645160     -2.104243
  H      -4.817445     -2.022549     -3.944584
  H      -1.725443      0.294754     -5.828382
  H      -0.125363     -0.352066     -3.974945
  H       0.479630      0.520688     -0.156038
  H       1.102020      1.218498     -1.694699
  H       3.487244      3.623818     -1.017697
  H       3.750657      5.270042      0.860104
  H       4.014723      4.350892      4.406874
  H       5.478433      4.942628      3.600560
  H       3.912942      5.701523      3.247562
  H       4.606635      2.029649      3.558544
  H       4.346111      0.399331      1.681697
  H       3.018369     -1.541568     -2.236353
  H       2.459311     -2.295422     -0.713279
  H      -0.266889     -4.788448      2.220934
  H      -0.249101     -5.887938      0.805376
  H      -1.809113     -5.420455      1.551633
  H      -2.158175     -3.475287      2.706662
60
Coordinates from ORCA-job file E -2653.490747566816
  C      -3.959176     -0.195785      3.800181
  O      -3.331428     -1.396701      3.431038
  C      -2.730368     -1.474739      2.228951
  C      -2.718367     -0.424283      1.305076
  C      -2.053074     -0.609877      0.084419
  O      -1.973726      0.344588     -0.859495
  C      -2.671656      1.552474     -0.692964
  C      -1.434108     -1.830120     -0.217919
  S      -0.407805     -2.034060     -1.695109
  C      -1.606242     -1.515327     -2.958602
  C      -2.907600     -2.010624     -2.939746
  C      -3.786643     -1.666673     -3.963397
  C      -3.343795     -0.835008     -4.992937
  Cl     -4.440364     -0.401620     -6.270053
  C      -2.038955     -0.347875     -5.014679
  C      -1.161637     -0.697820     -3.989792
  C       0.890214     -1.012358     -1.740614
  C       1.082183      0.322320     -1.045521
  N       2.447651     -0.131674     -0.669408
  S       3.764347      0.788548     -1.098181
  O       4.896504     -0.121492     -1.048044
  O       3.504309      1.570243     -2.301387
  C       3.886344      1.942306      0.249106
  C       3.717923      3.299432     -0.000212
  C       3.876779      4.202481      1.050824
  C       4.205650      3.761489      2.336136
  C       4.418703      4.741850      3.459325
  C       4.366167      2.384376      2.555545
  C       4.215242      1.470932      1.519781
  C       2.305386     -1.437795     -1.378990
  C      -1.456350     -2.871751      0.729105
  O      -0.838241     -4.012107      0.376297
  C      -0.787146     -5.072356      1.298833
  C      -2.106295     -2.697013      1.949128
  H      -4.782586      0.055376      3.112056
  H      -3.242650      0.641315      3.827024
  H      -4.368391     -0.350716      4.804252
  H      -3.197511      0.524259      1.527731
  H      -2.281622      2.127744      0.162274
  H      -2.515922      2.125186     -1.613138
  H      -3.749178      1.372246     -0.552583
  H      -3.239736     -2.655890     -2.123252
  H      -4.811343     -2.037969     -3.973791
  H      -1.717655      0.297126     -5.832774
  H      -0.126662     -0.346551     -3.970121
  H       0.464043      0.519506     -0.151724
  H       1.087175      1.219567     -1.689088
  H       3.474458      3.627005     -1.011750
  H       3.749105      5.271344      0.866121
  H       4.029959      4.350278      4.409351
  H       5.492929      4.938795      3.599332
  H       3.928370      5.701778      3.251129
  H       4.623177      2.028610      3.555772
  H       4.351089      0.400058      1.679028
  H       3.011534     -1.545448     -2.219291
  H       2.443874     -2.291160     -0.695629
  H      -0.253837     -4.776701      2.216273
  H      -0.240841     -5.883507      0.806311
  H      -1.797500     -5.422317      1.563031
  H      -2.154705     -3.473917      2.708265
60
Coordinates from ORCA-job file E -2653.490674351136
  C      -3.916666     -0.168564      3.811150
  O      -3.290603     -1.370373      3.442304
  C      -2.707183     -1.456573      2.231994
  C      -2.708710     -0.412532      1.300738
  C      -2.063496     -0.607614      0.070727
  O      -1.998457      0.338952     -0.882135
  C      -2.650201      1.568775     -0.692356
  C      -1.450296     -1.830815     -0.232139
  S      -0.425898     -2.038192     -1.708693
  C      -1.618423     -1.522285     -2.977276
  C      -2.915230     -2.029382     -2.969995
  C      -3.788742     -1.690038     -4.000036
  C      -3.345140     -0.850969     -5.023009
  Cl     -4.435626     -0.423971     -6.307608
  C      -2.044629     -0.351025     -5.032195
  C      -1.172503     -0.696765     -4.001486
  C       0.871538     -1.014077     -1.749180
  C       1.056737      0.320939     -1.052404
  N       2.419729     -0.131289     -0.664893
  S       3.739886      0.783178     -1.095875
  O       4.866112     -0.134356     -1.047845
  O       3.481660      1.566920     -2.298024
  C       3.869611      1.933236      0.254357
  C       3.698644      3.291362      0.012526
  C       3.858308      4.189039      1.068147
  C       4.190127      3.742208      2.350713
  C       4.401317      4.717099      3.479061
  C       4.354520      2.364312      2.562272
  C       4.202777      1.456165      1.521884
  C       2.281407     -1.440918     -1.369901
  C      -1.456038     -2.864508      0.723782
  O      -0.838793     -4.005656      0.371324
  C      -0.745599     -5.047702      1.311332
  C      -2.087233     -2.680778      1.952125
  H      -4.749370      0.075596      3.131591
  H      -3.202542      0.670916      3.823189
  H      -4.313111     -0.317898      4.821199
  H      -3.183743      0.537723      1.524501
  H      -2.206193      2.130923      0.145287
  H      -2.512543      2.134327     -1.619803
  H      -3.726599      1.425179     -0.508510
  H      -3.247771     -2.680214     -2.158136
  H      -4.809656     -2.071070     -4.020609
  H      -1.722518      0.300470     -5.844746
  H      -0.140779     -0.336692     -3.970542
  H       0.432388      0.516969     -0.162665
  H       1.065950      1.218866     -1.695060
  H       3.452475      3.624283     -0.996610
  H       3.728271      5.258667      0.889475
  H       4.007384      4.322384      4.425655
  H       5.475360      4.911000      3.624695
  H       3.914194      5.679146      3.273167
  H       4.615002      2.003738      3.559859
  H       4.341420      0.384829      1.675311
  H       2.997974     -1.556513     -2.200086
  H       2.408978     -2.290008     -0.678915
  H      -0.197121     -4.724508      2.210407
  H      -0.194748     -5.857070      0.820798
  H      -1.742335     -5.412757      1.605080
  H      -2.123280     -3.452087      2.717581
60
Coordinates from ORCA-job file E -2653.490717406257
  C      -3.909639     -0.164443      3.809749
  O      -3.281081     -1.365492      3.442597
  C      -2.700160     -1.453323      2.231225
  C      -2.705792     -0.411355      1.297768
  C      -2.063243     -0.607815      0.066606
  O      -2.001557      0.337205     -0.887838
  C      -2.647054      1.569691     -0.694213
  C      -1.447773     -1.830016     -0.234907
  S      -0.425855     -2.038363     -1.713471
  C      -1.620506     -1.520880     -2.979210
  C      -2.919138     -2.023570     -2.966672
  C      -3.795682     -1.680893     -3.993059
  C      -3.353245     -0.843728     -5.017988
  Cl     -4.447633     -0.413545     -6.298167
  C      -2.050793     -0.348886     -5.032840
  C      -1.175749     -0.697320     -4.005437
  C       0.873347     -1.016028     -1.757422
  C       1.060802      0.319480     -1.061805
  N       2.420736     -0.136665     -0.668894
  S       3.745750      0.774302     -1.092481
  O       4.870358     -0.144653     -1.035550
  O       3.497324      1.556797     -2.297484
  C       3.867398      1.925853      0.257107
  C       3.699122      3.283659      0.012433
  C       3.853507      4.182638      1.067660
  C       4.177498      3.737358      2.352809
  C       4.384208      4.713771      3.480615
  C       4.339070      2.359606      2.567278
  C       4.192605      1.450181      1.527239
  C       2.281635     -1.445891     -1.374203
  C      -1.448269     -2.861236      0.723678
  O      -0.827980     -4.001254      0.372970
  C      -0.731097     -5.041138      1.314952
  C      -2.077842     -2.676692      1.952781
  H      -4.743802      0.076253      3.130740
  H      -3.197696      0.676908      3.819039
  H      -4.304291     -0.312627      4.820656
  H      -3.181753      0.538584      1.520827
  H      -2.198453      2.127462      0.143939
  H      -2.508639      2.136453     -1.620846
  H      -3.723872      1.430841     -0.509181
  H      -3.251111     -2.672541     -2.153197
  H      -4.818226     -2.057814     -4.009165
  H      -1.729465      0.301064     -5.846916
  H      -0.142931     -0.340274     -3.977778
  H       0.433948      0.519457     -0.174764
  H       1.075638      1.216130     -1.706204
  H       3.459492      3.615622     -0.998609
  H       3.725817      5.252151      0.886635
  H       3.985117      4.321060      4.425901
  H       5.457717      4.906759      3.631368
  H       3.899175      5.675982      3.270684
  H       4.593154      2.000005      3.566886
  H       4.329583      0.378947      1.682915
  H       2.999794     -1.562604     -2.202908
  H       2.405732     -2.295595     -0.683348
  H      -0.184228     -4.714360      2.213684
  H      -0.177196     -5.849444      0.826086
  H      -1.726553     -5.409379      1.609261
  H      -2.110221     -3.446398      2.719967
60
Coordinates from ORCA-job file E -2653.490876066580
  C      -3.893486     -0.153238      3.802332
  O      -3.261103     -1.353525      3.438947
  C      -2.681169     -1.444199      2.227499
  C      -2.689961     -0.405166      1.290982
  C      -2.048282     -0.603563      0.059711
  O      -1.990919      0.338727     -0.897335
  C      -2.622490      1.577279     -0.696338
  C      -1.430657     -1.825028     -0.239279
  S      -0.418220     -2.039698     -1.725023
  C      -1.623054     -1.518703     -2.979408
  C      -2.927852     -2.004955     -2.944671
  C      -3.816706     -1.653084     -3.957202
  C      -3.380162     -0.825183     -4.992117
  Cl     -4.490552     -0.382731     -6.254019
  C      -2.071522     -0.348652     -5.030363
  C      -1.184483     -0.704841     -4.015820
  C       0.885718     -1.022861     -1.785000
  C       1.080900      0.312390     -1.090260
  N       2.433196     -0.155434     -0.686738
  S       3.769503      0.750656     -1.084172
  O       4.892574     -0.167835     -1.000542
  O       3.549027      1.529830     -2.296608
  C       3.861426      1.906067      0.263952
  C       3.695191      3.262394      0.011278
  C       3.830317      4.165631      1.065344
  C       4.133760      3.725788      2.357411
  C       4.323221      4.707007      3.483946
  C       4.292886      2.349120      2.580020
  C       4.165163      1.435506      1.541241
  C       2.292138     -1.459961     -1.399041
  C      -1.425572     -2.852372      0.723381
  O      -0.797405     -3.989525      0.378085
  C      -0.707726     -5.030419      1.319398
  C      -2.054923     -2.666499      1.952499
  H      -4.727494      0.083437      3.121820
  H      -3.183953      0.690162      3.809866
  H      -4.288255     -0.299711      4.813397
  H      -3.167661      0.544367      1.511950
  H      -2.170535      2.121931      0.148530
  H      -2.473726      2.149489     -1.618035
  H      -3.702027      1.449745     -0.518974
  H      -3.256319     -2.645476     -2.123263
  H      -4.844959     -2.014703     -3.953969
  H      -1.754579      0.293767     -5.852104
  H      -0.147356     -0.359847     -4.004617
  H       0.448429      0.521327     -0.209297
  H       1.109253      1.206423     -1.737909
  H       3.473057      3.590554     -1.005051
  H       3.704820      5.234267      0.877779
  H       3.914170      4.316472      4.425888
  H       5.394140      4.904320      3.646971
  H       3.837393      5.666643      3.264321
  H       4.529946      1.993304      3.585198
  H       4.301425      0.365083      1.703251
  H       3.010954     -1.573403     -2.227878
  H       2.411377     -2.315159     -0.714232
  H      -0.169480     -4.705027      2.223750
  H      -0.149202     -5.837869      0.834451
  H      -1.705554     -5.399469      1.605105
  H      -2.082641     -3.433546      2.722466
60
Coordinates from ORCA-job file E -2653.490908355054
  C      -3.863884     -0.158553      3.815670
  O      -3.249427     -1.364422      3.440162
  C      -2.670505     -1.451720      2.227998
  C      -2.662270     -0.402889      1.302691
  C      -2.025380     -0.598799      0.068523
  O      -1.951988      0.353258     -0.877435
  C      -2.535641      1.610310     -0.648633
  C      -1.424978     -1.825461     -0.242720
  S      -0.413246     -2.040367     -1.730309
  C      -1.621462     -1.525113     -2.983286
  C      -2.930294     -2.000017     -2.932913
  C      -3.824683     -1.650295     -3.941317
  C      -3.389924     -0.837132     -4.988288
  Cl     -4.507272     -0.400864     -6.246167
  C      -2.077044     -0.373875     -5.043361
  C      -1.184457     -0.726627     -4.032212
  C       0.892411     -1.024483     -1.797067
  C       1.088811      0.313174     -1.105958
  N       2.435436     -0.158399     -0.689391
  S       3.779808      0.742623     -1.072620
  O       4.902185     -0.174150     -0.965078
  O       3.579403      1.514220     -2.293313
  C       3.850711      1.907468      0.268172
  C       3.682366      3.260886      0.003422
  C       3.804710      4.172756      1.051405
  C       4.097813      3.744119      2.349702
  C       4.277001      4.735007      3.469258
  C       4.258473      2.369720      2.584688
  C       4.143708      1.447639      1.551899
  C       2.295542     -1.464619     -1.398402
  C      -1.434763     -2.862166      0.709825
  O      -0.825951     -4.006001      0.352066
  C      -0.759704     -5.060716      1.279705
  C      -2.063658     -2.680819      1.939980
  H      -4.692431      0.098920      3.135991
  H      -3.141546      0.673702      3.834302
  H      -4.263151     -0.310299      4.824172
  H      -3.124075      0.551876      1.534381
  H      -2.061209      2.117903      0.206949
  H      -2.366611      2.195849     -1.558498
  H      -3.619263      1.520463     -0.473032
  H      -3.258084     -2.628271     -2.102085
  H      -4.856207     -2.002305     -3.925409
  H      -1.761084      0.256135     -5.874960
  H      -0.144739     -0.389960     -4.031887
  H       0.450585      0.529961     -0.231221
  H       1.126853      1.203591     -1.758237
  H       3.469810      3.580854     -1.017569
  H       3.678158      5.239484      0.854040
  H       3.860552      4.352133      4.411159
  H       5.346318      4.934901      3.639658
  H       3.791974      5.692052      3.237222
  H       4.486996      2.022206      3.594777
  H       4.282750      0.379044      1.723347
  H       3.019601     -1.582407     -2.222146
  H       2.407079     -2.318612     -0.710854
  H      -0.221413     -4.757321      2.191609
  H      -0.212843     -5.871419      0.786905
  H      -1.765438     -5.416169      1.555151
  H      -2.104425     -3.456007      2.701037
60
Coordinates from ORCA-job file E -2653.490969829343
  C      -3.902381     -0.169488      3.794219
  O      -3.279746     -1.372183      3.421742
  C      -2.682180     -1.452579      2.218317
  C      -2.665103     -0.400481      1.296878
  C      -2.010871     -0.589320      0.070567
  O      -1.941198      0.362022     -0.876608
  C      -2.517810      1.622089     -0.644963
  C      -1.398264     -1.811321     -0.235709
  S      -0.386241     -2.026292     -1.726526
  C      -1.610920     -1.526393     -2.970284
  C      -2.927874     -1.972073     -2.874574
  C      -3.840988     -1.631426     -3.868731
  C      -3.417409     -0.856571     -4.948892
  Cl     -4.558420     -0.429733     -6.188427
  C      -2.096914     -0.425361     -5.051409
  C      -1.185372     -0.768173     -4.053448
  C       0.918971     -1.009186     -1.815196
  C       1.129759      0.318051     -1.106338
  N       2.478997     -0.163697     -0.711590
  S       3.822038      0.749966     -1.071683
  O       4.956195     -0.150908     -0.956183
  O       3.629651      1.528782     -2.288916
  C       3.865437      1.909440      0.273621
  C       3.671608      3.259804      0.011333
  C       3.781396      4.172414      1.059793
  C       4.088416      3.746932      2.355877
  C       4.260201      4.739270      3.475033
  C       4.272625      2.375133      2.588701
  C       4.169968      1.452362      1.555489
  C       2.330156     -1.454769     -1.444670
  C      -1.421404     -2.853169      0.711167
  O      -0.813392     -3.997689      0.354314
  C      -0.798503     -5.071631      1.261441
  C      -2.069193     -2.679307      1.932863
  H      -4.720299      0.090900      3.103019
  H      -3.181520      0.663577      3.829221
  H      -4.316942     -0.327574      4.795548
  H      -3.138380      0.549732      1.523893
  H      -2.055606      2.115780      0.224920
  H      -2.325384      2.215513     -1.545039
  H      -3.605869      1.540740     -0.493767
  H      -3.248261     -2.569094     -2.018343
  H      -4.879266     -1.959294     -3.814950
  H      -1.789665      0.172745     -5.909427
  H      -0.139581     -0.453910     -4.090383
  H       0.501728      0.526456     -0.222523
  H       1.163214      1.215822     -1.748814
  H       3.451203      3.577478     -1.008712
  H       3.635733      5.236944      0.864030
  H       3.862149      4.346765      4.420911
  H       5.327408      4.959166      3.633616
  H       3.754123      5.686966      3.249771
  H       4.511058      2.030099      3.597367
  H       4.329183      0.386195      1.724487
  H       3.039984     -1.552698     -2.283634
  H       2.453024     -2.324530     -0.779566
  H      -0.277486     -4.801446      2.193615
  H      -0.260148     -5.886684      0.766652
  H      -1.820277     -5.405157      1.503846
  H      -2.121357     -3.459002      2.688550
60
Coordinates from ORCA-job file E -2653.490957053137
  C      -3.943238     -0.182942      3.790739
  O      -3.314729     -1.384115      3.423749
  C      -2.713565     -1.464986      2.221964
  C      -2.700998     -0.416429      1.295791
  C      -2.039122     -0.606093      0.073724
  O      -1.974731      0.338791     -0.880987
  C      -2.600685      1.580689     -0.681428
  C      -1.419184     -1.826805     -0.225038
  S      -0.397593     -2.035395     -1.706538
  C      -1.607363     -1.521024     -2.959720
  C      -2.908782     -2.016118     -2.923124
  C      -3.802558     -1.670386     -3.932906
  C      -3.375247     -0.836470     -4.967175
  Cl     -4.492641     -0.395439     -6.223339
  C      -2.070263     -0.351387     -5.008321
  C      -1.177677     -0.703072     -3.997084
  C       0.904125     -1.015004     -1.769534
  C       1.103765      0.314648     -1.064491
  N       2.464193     -0.149931     -0.684263
  S       3.789756      0.770658     -1.087227
  O       4.926269     -0.131799     -1.011114
  O       3.553226      1.549574     -2.296790
  C       3.880575      1.928551      0.258276
  C       3.689759      3.281799      0.004610
  C       3.828848      4.190263      1.053680
  C       4.161107      3.758245      2.341132
  C       4.356737      4.744900      3.461770
  C       4.343368      2.384578      2.565064
  C       4.211526      1.465830      1.531537
  C       2.317326     -1.449740     -1.403893
  C      -1.444652     -2.867534      0.723025
  O      -0.832039     -4.011230      0.371072
  C      -0.797740     -5.075487      1.289465
  C      -2.093624     -2.689611      1.943251
  H      -4.764294      0.068721      3.100063
  H      -3.226482      0.653945      3.819803
  H      -4.355403     -0.337705      4.793637
  H      -3.183323      0.531073      1.515729
  H      -2.159046      2.117059      0.173746
  H      -2.431673      2.158144     -1.596315
  H      -3.683986      1.460423     -0.522769
  H      -3.230465     -2.661478     -2.102660
  H      -4.827958     -2.040045     -3.927328
  H      -1.760953      0.295449     -5.829593
  H      -0.143106     -0.350571     -3.990576
  H       0.483142      0.512144     -0.172478
  H       1.116996      1.214264     -1.704781
  H       3.446890      3.603245     -1.009025
  H       3.684360      5.256308      0.865264
  H       3.970117      4.351086      4.411747
  H       5.427774      4.956396      3.604823
  H       3.854202      5.697363      3.248534
  H       4.603256      2.035615      3.566949
  H       4.366185      0.398003      1.693924
  H       3.025029     -1.554995     -2.243364
  H       2.447652     -2.309978     -0.727711
  H      -0.266683     -4.790170      2.211501
  H      -0.258137     -5.890997      0.796875
  H      -1.813569     -5.414713      1.547050
  H      -2.144674     -3.466115      2.702579
60
Coordinates from ORCA-job file E -2653.490375148282
  C      -3.907918     -0.161751      3.813043
  O      -3.290586     -1.367714      3.443803
  C      -2.719355     -1.461486      2.228061
  C      -2.724128     -0.420938      1.292435
  C      -2.089518     -0.624703      0.058398
  O      -2.028712      0.314203     -0.902546
  C      -2.629554      1.567128     -0.698573
  C      -1.480823     -1.851116     -0.241866
  S      -0.441094     -2.050036     -1.705511
  C      -1.617762     -1.537833     -2.988812
  C      -2.913474     -2.046112     -2.994542
  C      -3.773138     -1.716121     -4.039175
  C      -3.316815     -0.883356     -5.061902
  Cl     -4.390414     -0.464562     -6.363476
  C      -2.017571     -0.379735     -5.056098
  C      -1.159079     -0.717655     -4.011950
  C       0.843875     -1.009630     -1.721725
  C       1.005885      0.324373     -1.018027
  N       2.380115     -0.102970     -0.639935
  S       3.678218      0.827279     -1.103247
  O       4.809162     -0.085969     -1.101257
  O       3.373936      1.621205     -2.287819
  C       3.850623      1.963898      0.254578
  C       3.664428      3.324356      0.035725
  C       3.856042      4.210013      1.096570
  C       4.234187      3.749411      2.361149
  C       4.475732      4.711033      3.495044
  C       4.414149      2.369959      2.549461
  C       4.230944      1.473707      1.503781
  C       2.255411     -1.419838     -1.335765
  C      -1.489170     -2.883376      0.715606
  O      -0.879426     -4.028858      0.363309
  C      -0.757031     -5.056023      1.316610
  C      -2.109001     -2.690311      1.948115
  H      -4.748206      0.081295      3.142479
  H      -3.190627      0.675143      3.811935
  H      -4.293208     -0.304027      4.828464
  H      -3.194440      0.531922      1.515795
  H      -2.137716      2.115115      0.121787
  H      -2.499534      2.124174     -1.632200
  H      -3.703771      1.465409     -0.478611
  H      -3.254564     -2.692606     -2.182377
  H      -4.792449     -2.100213     -4.071852
  H      -1.686021      0.267985     -5.867917
  H      -0.127171     -0.358399     -3.971778
  H       0.384480      0.499961     -0.121402
  H       0.992186      1.227831     -1.652675
  H       3.382520      3.668017     -0.960278
  H       3.714439      5.281062      0.935976
  H       4.101454      4.307467      4.445853
  H       5.553693      4.898413      3.618231
  H       3.988525      5.677520      3.311222
  H       4.713478      1.999484      3.532336
  H       4.381482      0.401525      1.638865
  H       2.978282     -1.538338     -2.159670
  H       2.387459     -2.259685     -0.634069
  H      -0.190583     -4.714257      2.197551
  H      -0.210142     -5.868003      0.825964
  H      -1.743748     -5.424902      1.637342
  H      -2.143954     -3.458360      2.717066
60
Coordinates from ORCA-job file E -2653.490786592041
  C      -3.921714     -0.167740      3.801978
  O      -3.303135     -1.373534      3.433409
  C      -2.715549     -1.461904      2.225327
  C      -2.704160     -0.415370      1.296994
  C      -2.055599     -0.612919      0.069348
  O      -1.979971      0.334128     -0.881781
  C      -2.575231      1.588410     -0.669025
  C      -1.447393     -1.838659     -0.232670
  S      -0.418067     -2.044520     -1.706782
  C      -1.614680     -1.539813     -2.975812
  C      -2.908592     -2.054791     -2.965015
  C      -3.788173     -1.718232     -3.990686
  C      -3.353374     -0.874969     -5.013940
  Cl     -4.451529     -0.451111     -6.292920
  C      -2.055448     -0.368718     -5.027823
  C      -1.177485     -0.710616     -4.000776
  C       0.873658     -1.011521     -1.754493
  C       1.052566      0.326317     -1.060720
  N       2.418864     -0.116673     -0.674737
  S       3.732492      0.808096     -1.105256
  O       4.866657     -0.099961     -1.065934
  O       3.464931      1.597183     -2.301887
  C       3.860078      1.951190      0.250871
  C       3.683819      3.309767      0.016448
  C       3.846967      4.203006      1.075289
  C       4.186958      3.751000      2.353888
  C       4.404242      4.720922      3.485300
  C       4.355311      2.372527      2.558270
  C       4.200833      1.468906      1.514410
  C       2.286684     -1.429566     -1.374255
  C      -1.467957     -2.875827      0.719235
  O      -0.858352     -4.021266      0.367475
  C      -0.785893     -5.068346      1.303590
  C      -2.104617     -2.690579      1.944774
  H      -4.750023      0.084082      3.119934
  H      -3.201201      0.666166      3.818428
  H      -4.322922     -0.315823      4.810313
  H      -3.173371      0.537799      1.521037
  H      -2.109072      2.111127      0.182116
  H      -2.406475      2.165674     -1.584130
  H      -3.658328      1.492214     -0.493988
  H      -3.235121     -2.707736     -2.152550
  H      -4.807440     -2.103977     -4.007074
  H      -1.740032      0.285580     -5.840757
  H      -0.148444     -0.342951     -3.972370
  H       0.428980      0.520423     -0.169791
  H       1.054765      1.222537     -1.705834
  H       3.432456      3.646999     -0.989947
  H       3.714048      5.273145      0.901991
  H       4.010432      4.324426      4.431238
  H       5.479397      4.909505      3.629588
  H       3.920737      5.685630      3.283661
  H       4.622501      2.007904      3.552643
  H       4.343737      0.397255      1.661883
  H       3.002648     -1.544770     -2.205008
  H       2.419145     -2.275407     -0.680163
  H      -0.241098     -4.756330      2.208758
  H      -0.241188     -5.882478      0.814152
  H      -1.789640     -5.421911      1.587701
  H      -2.151638     -3.463902      2.707573
60
Coordinates from ORCA-job file E -2653.490781219029
  C      -3.920117     -0.172116      3.807660
  O      -3.290547     -1.372173      3.439118
  C      -2.707923     -1.458292      2.228550
  C      -2.713232     -0.415488      1.295803
  C      -2.072327     -0.611890      0.063667
  O      -2.019991      0.329130     -0.895168
  C      -2.594221      1.591069     -0.670148
  C      -1.454103     -1.833315     -0.237175
  S      -0.427436     -2.038448     -1.713607
  C      -1.621020     -1.530839     -2.983396
  C      -2.919011     -2.035065     -2.967244
  C      -3.796818     -1.698923     -3.994503
  C      -3.356522     -0.866269     -5.024085
  Cl     -4.453099     -0.441893     -6.304224
  C      -2.054496     -0.370981     -5.043297
  C      -1.178021     -0.713072     -4.015077
  C       0.869543     -1.011314     -1.760292
  C       1.052309      0.324683     -1.063456
  N       2.414411     -0.125511     -0.671660
  S       3.736680      0.789565     -1.096770
  O       4.864393     -0.125854     -1.045470
  O       3.482682      1.574789     -2.298800
  C       3.862963      1.937807      0.255313
  C       3.692120      3.296086      0.015273
  C       3.850780      4.192478      1.072222
  C       4.181865      3.744040      2.354355
  C       4.393202      4.717056      3.484258
  C       4.345962      2.365848      2.564185
  C       4.194888      1.459065      1.522586
  C       2.277049     -1.438832     -1.369261
  C      -1.455626     -2.865012      0.720551
  O      -0.834952     -4.004504      0.369291
  C      -0.743887     -5.047800      1.307918
  C      -2.086192     -2.681689      1.949262
  H      -4.752517      0.070545      3.127275
  H      -3.207990      0.669040      3.821029
  H      -4.317205     -0.322968      4.817221
  H      -3.192925      0.532632      1.518472
  H      -2.103756      2.105394      0.172247
  H      -2.435250      2.166749     -1.587972
  H      -3.675131      1.510142     -0.475084
  H      -3.249861     -2.679920     -2.150028
  H      -4.819153     -2.076578     -4.006998
  H      -1.734373      0.274554     -5.861370
  H      -0.145411     -0.355395     -3.990952
  H       0.426063      0.520787     -0.174703
  H       1.062012      1.221826     -1.707112
  H       3.447138      3.630899     -0.993517
  H       3.721193      5.262331      0.894622
  H       3.989130      4.325676      4.428035
  H       5.467787      4.901487      3.637727
  H       3.915743      5.683180      3.274926
  H       4.605800      2.003721      3.561411
  H       4.333268      0.387534      1.674949
  H       2.998082     -1.561641     -2.194412
  H       2.398091     -2.283951     -0.672184
  H      -0.201177     -4.725240      2.210730
  H      -0.188550     -5.854976      0.818882
  H      -1.741072     -5.415922      1.596338
  H      -2.119242     -3.452237      2.715590
60
Coordinates from ORCA-job file E -2653.490807892221
  C      -3.896690     -0.165618      3.809835
  O      -3.273065     -1.368501      3.440309
  C      -2.695871     -1.458243      2.227446
  C      -2.701306     -0.416411      1.293653
  C      -2.064114     -0.615535      0.060091
  O      -2.009221      0.325158     -0.898812
  C      -2.570177      1.592310     -0.669592
  C      -1.450411     -1.838649     -0.241666
  S      -0.426725     -2.045691     -1.719905
  C      -1.621586     -1.530597     -2.985161
  C      -2.924616     -2.021406     -2.960667
  C      -3.804923     -1.677566     -3.983223
  C      -3.362074     -0.851108     -5.016719
  Cl     -4.462050     -0.416480     -6.290450
  C      -2.055154     -0.369390     -5.044342
  C      -1.176335     -0.718700     -4.020528
  C       0.871533     -1.020329     -1.767910
  C       1.052139      0.318400     -1.075837
  N       2.410733     -0.132292     -0.673703
  S       3.736966      0.780127     -1.090911
  O       4.863206     -0.136396     -1.028497
  O       3.493017      1.562086     -2.297113
  C       3.853540      1.932212      0.258774
  C       3.682949      3.289561      0.013603
  C       3.835019      4.189413      1.068579
  C       4.159780      3.745323      2.353834
  C       4.364737      4.722051      3.481713
  C       4.323820      2.367912      2.568853
  C       4.178853      1.457710      1.529377
  C       2.276707     -1.447613     -1.367789
  C      -1.451367     -2.869448      0.717118
  O      -0.832254     -4.009882      0.366253
  C      -0.743308     -5.053326      1.304845
  C      -2.077942     -2.683519      1.947531
  H      -4.730884      0.079260      3.132475
  H      -3.181384      0.672920      3.819156
  H      -4.290148     -0.313607      4.821229
  H      -3.177116      0.533510      1.517136
  H      -2.077516      2.097493      0.177004
  H      -2.401634      2.170460     -1.584171
  H      -3.652729      1.522595     -0.479260
  H      -3.257632     -2.661028     -2.140244
  H      -4.831352     -2.044104     -3.988794
  H      -1.733211      0.271743     -5.865169
  H      -0.140207     -0.370990     -4.002594
  H       0.420374      0.519463     -0.192020
  H       1.067485      1.212675     -1.723431
  H       3.443334      3.621129     -0.997573
  H       3.705653      5.258599      0.886854
  H       3.956921      4.333022      4.424870
  H       5.438383      4.908287      3.639563
  H       3.887039      5.686965      3.267302
  H       4.578470      2.009045      3.568603
  H       4.317431      0.386801      1.685870
  H       3.002070     -1.573169     -2.188785
  H       2.393533     -2.290712     -0.667557
  H      -0.199063     -4.732354      2.207298
  H      -0.190679     -5.862141      0.815450
  H      -1.741336     -5.418532      1.594204
  H      -2.109607     -3.452892      2.715092
60
Coordinates from ORCA-job file E -2653.490797815989
  C      -3.899063     -0.160570      3.806749
  O      -3.279626     -1.365885      3.438097
  C      -2.702523     -1.457999      2.225362
  C      -2.705002     -0.416629      1.291129
  C      -2.066057     -0.617263      0.058859
  O      -2.005654      0.323925     -0.899130
  C      -2.562522      1.592839     -0.669869
  C      -1.453877     -1.841126     -0.241843
  S      -0.425689     -2.047631     -1.717412
  C      -1.619670     -1.539073     -2.986014
  C      -2.921107     -2.034353     -2.963915
  C      -3.800421     -1.694668     -3.988711
  C      -3.358113     -0.868239     -5.022448
  Cl     -4.456708     -0.439448     -6.299351
  C      -2.052835     -0.382077     -5.047797
  C      -1.175048     -0.726861     -4.021481
  C       0.867940     -1.016705     -1.765059
  C       1.043808      0.321436     -1.070632
  N       2.406282     -0.122608     -0.674892
  S       3.725584      0.797876     -1.095393
  O       4.856197     -0.114166     -1.047225
  O       3.469286      1.587026     -2.294292
  C       3.848305      1.942342      0.260064
  C       3.667673      3.299962      0.024032
  C       3.828650      4.195321      1.081465
  C       4.172381      3.746430      2.360093
  C       4.388612      4.718543      3.489829
  C       4.345630      2.368749      2.566111
  C       4.192011      1.463017      1.524006
  C       2.276498     -1.437776     -1.369901
  C      -1.458835     -2.872167      0.716859
  O      -0.841137     -4.013907      0.367704
  C      -0.759562     -5.058451      1.305674
  C      -2.086779     -2.684691      1.946429
  H      -4.733215      0.086217      3.130057
  H      -3.180966      0.675604      3.814281
  H      -4.291876     -0.305978      4.818755
  H      -3.178902      0.534557      1.513733
  H      -2.076173      2.093038      0.183340
  H      -2.382517      2.173849     -1.580512
  H      -3.647192      1.527604     -0.490159
  H      -3.253813     -2.673813     -2.143314
  H      -4.825680     -2.064475     -3.995858
  H      -1.731448      0.259230     -5.868707
  H      -0.140424     -0.374915     -4.001863
  H       0.414631      0.516768     -0.183684
  H       1.051432      1.217439     -1.716034
  H       3.414686      3.635383     -0.982609
  H       3.692268      5.264772      0.906621
  H       3.995239      4.323219      4.436501
  H       5.463560      4.908344      3.634094
  H       3.904176      5.682505      3.286639
  H       4.615341      2.006263      3.560596
  H       4.338970      0.392138      1.673006
  H       3.000040     -1.558973     -2.193181
  H       2.399752     -2.280864     -0.670719
  H      -0.215083     -4.741292      2.209312
  H      -0.210614     -5.869998      0.816673
  H      -1.760184     -5.418183      1.593090
  H      -2.120636     -3.453614      2.714344
60
Coordinates from ORCA-job file E -2653.490755391431
  C      -3.912598     -0.171244      3.807736
  O      -3.290726     -1.375037      3.438245
  C      -2.710798     -1.464142      2.226621
  C      -2.713521     -0.421522      1.293773
  C      -2.072425     -0.619556      0.062211
  O      -2.012468      0.323097     -0.894416
  C      -2.571792      1.590692     -0.664100
  C      -1.458669     -1.842487     -0.239589
  S      -0.428280     -2.046370     -1.713995
  C      -1.619216     -1.537893     -2.985569
  C      -2.919073     -2.037384     -2.970192
  C      -3.794986     -1.698578     -3.998193
  C      -3.350789     -0.868756     -5.028402
  Cl     -4.444799     -0.441771     -6.309859
  C      -2.047114     -0.378036     -5.046861
  C      -1.172715     -0.722102     -4.017423
  C       0.865185     -1.015360     -1.757927
  C       1.039522      0.323945     -1.065485
  N       2.402931     -0.117719     -0.670207
  S       3.721173      0.801392     -1.096369
  O       4.850491     -0.112501     -1.051684
  O       3.460925      1.589762     -2.294963
  C       3.851644      1.947028      0.257536
  C       3.677696      3.305312      0.020044
  C       3.844435      4.201172      1.076210
  C       4.186823      3.752100      2.355123
  C       4.408609      4.724425      3.483631
  C       4.353253      2.373796      2.562657
  C       4.194365      1.467603      1.521718
  C       2.273236     -1.435372     -1.360571
  C      -1.463311     -2.874692      0.717851
  O      -0.843655     -4.015139      0.367914
  C      -0.760635     -5.060323      1.305032
  C      -2.092686     -2.689472      1.946989
  H      -4.746462      0.075055      3.130504
  H      -3.195837      0.666038      3.817126
  H      -4.306324     -0.318634      4.819104
  H      -3.189839      0.528412      1.516565
  H      -2.089238      2.090144      0.191727
  H      -2.389580      2.174088     -1.572788
  H      -3.656911      1.523539     -0.487718
  H      -3.253122     -2.679592     -2.152275
  H      -4.818970     -2.071724     -4.010585
  H      -1.724222      0.265822     -5.865182
  H      -0.139252     -0.367035     -3.993020
  H       0.410994      0.519157     -0.178038
  H       1.045227      1.219387     -1.711647
  H       3.425410      3.640710     -0.986742
  H       3.713348      5.271096      0.900177
  H       4.012093      4.332979      4.430592
  H       5.484661      4.907523      3.628303
  H       3.930511      5.691183      3.278823
  H       4.622254      2.011244      3.557299
  H       4.335975      0.396173      1.671957
  H       2.997566     -1.559969     -2.182560
  H       2.395880     -2.275629     -0.657841
  H      -0.215532     -4.743434      2.208401
  H      -0.211461     -5.871076      0.814967
  H      -1.760771     -5.420937      1.592947
  H      -2.126428     -3.459388      2.713917
60
Coordinates from ORCA-job file E -2653.490678831629
  C      -3.919952     -0.170781      3.808612
  O      -3.292766     -1.372278      3.440669
  C      -2.714310     -1.461280      2.228319
  C      -2.724974     -0.421512      1.292300
  C      -2.086123     -0.620005      0.059556
  O      -2.033999      0.319871     -0.900430
  C      -2.583371      1.590993     -0.666461
  C      -1.467717     -1.841231     -0.240406
  S      -0.436118     -2.044349     -1.713862
  C      -1.623653     -1.539718     -2.989688
  C      -2.919792     -2.048718     -2.983485
  C      -3.791182     -1.715365     -4.017096
  C      -3.346322     -0.880815     -5.043176
  Cl     -4.434490     -0.461535     -6.332163
  C      -2.046468     -0.379691     -5.051862
  C      -1.176393     -0.718849     -4.017184
  C       0.856090     -1.011698     -1.755232
  C       1.026874      0.329076     -1.064764
  N       2.391546     -0.108440     -0.669154
  S       3.708602      0.809279     -1.101056
  O       4.835189     -0.108508     -1.066048
  O       3.442399      1.601922     -2.295537
  C       3.852209      1.950074      0.255905
  C       3.684181      3.310165      0.024265
  C       3.858325      4.201071      1.083530
  C       4.202104      3.745460      2.359740
  C       4.430048      4.712124      3.491928
  C       4.363165      2.365610      2.561215
  C       4.196855      1.464313      1.517165
  C       2.263193     -1.429630     -1.353262
  C      -1.462960     -2.869694      0.720962
  O      -0.836215     -4.006987      0.373351
  C      -0.740062     -5.047099      1.314858
  C      -2.089641     -2.683823      1.951265
  H      -4.756950      0.069340      3.132984
  H      -3.207589      0.670270      3.813757
  H      -4.310266     -0.317597      4.821395
  H      -3.207069      0.525949      1.512853
  H      -2.094675      2.085628      0.188684
  H      -2.399381      2.174729     -1.574577
  H      -3.668402      1.531741     -0.486607
  H      -3.254097     -2.694982     -2.168820
  H      -4.812021     -2.096639     -4.037161
  H      -1.722923      0.267803     -5.867039
  H      -0.145619     -0.356528     -3.985744
  H       0.398450      0.523080     -0.176858
  H       1.029797      1.224193     -1.711315
  H       3.429651      3.650698     -0.980199
  H       3.731239      5.272255      0.912234
  H       4.030568      4.319778      4.437278
  H       5.507225      4.887560      3.637669
  H       3.958427      5.682823      3.290706
  H       4.633513      1.997920      3.553594
  H       4.333412      0.391629      1.663041
  H       2.989727     -1.559175     -2.172327
  H       2.384190     -2.265651     -0.645101
  H      -0.192707     -4.721558      2.213820
  H      -0.186877     -5.855690      0.825707
  H      -1.735681     -5.414402      1.609673
  H      -2.116213     -3.451129      2.721079
60
Coordinates from ORCA-job file E -2653.490709070192
  C      -3.918721     -0.170305      3.807059
  O      -3.289900     -1.371207      3.439867
  C      -2.710697     -1.460049      2.227883
  C      -2.722997     -0.421066      1.291009
  C      -2.083068     -0.619200      0.058733
  O      -2.032558      0.320050     -0.902015
  C      -2.583185      1.590784     -0.668714
  C      -1.462995     -1.839785     -0.240299
  S      -0.434233     -2.044564     -1.715634
  C      -1.623830     -1.536911     -2.988297
  C      -2.923090     -2.037807     -2.975063
  C      -3.796879     -1.701942     -4.005799
  C      -3.351411     -0.872801     -5.036016
  Cl     -4.442717     -0.449876     -6.321123
  C      -2.048477     -0.379913     -5.051795
  C      -1.176043     -0.721625     -4.019976
  C       0.859652     -1.014187     -1.760072
  C       1.032339      0.327465     -1.071790
  N       2.395497     -0.112214     -0.673831
  S       3.715267      0.803266     -1.101658
  O       4.840722     -0.115659     -1.060964
  O       3.454860      1.594605     -2.298298
  C       3.854109      1.945294      0.254826
  C       3.687743      3.305294      0.021401
  C       3.855961      4.196806      1.081127
  C       4.192278      3.741929      2.359582
  C       4.413210      4.709186      3.492658
  C       4.352101      2.362201      2.562761
  C       4.191367      1.460288      1.518368
  C       2.266014     -1.433685     -1.356968
  C      -1.455883     -2.867153      0.722201
  O      -0.825864     -4.003067      0.376023
  C      -0.730856     -5.043579      1.317173
  C      -2.083106     -2.681424      1.952250
  H      -4.755735      0.068452      3.130965
  H      -3.207420      0.671651      3.812021
  H      -4.309182     -0.317138      4.819784
  H      -3.207594      0.525383      1.510342
  H      -2.097997      2.084811      0.188711
  H      -2.395948      2.175629     -1.575440
  H      -3.668889      1.530949     -0.493014
  H      -3.257928     -2.679808     -2.157224
  H      -4.820070     -2.077110     -4.020438
  H      -1.724466      0.263435     -5.870067
  H      -0.142962     -0.365502     -3.994008
  H       0.402912      0.524387     -0.185219
  H       1.038091      1.221374     -1.719991
  H       3.438288      3.645268     -0.984533
  H       3.729698      5.267883      0.908540
  H       4.009288      4.316672      4.436056
  H       5.489417      4.885890      3.643921
  H       3.941527      5.679309      3.288708
  H       4.616262      1.994981      3.556985
  H       4.326191      0.387617      1.665892
  H       2.992547     -1.564553     -2.175815
  H       2.385563     -2.269540     -0.648388
  H      -0.184912     -4.718377      2.217130
  H      -0.176799     -5.851849      0.828486
  H      -1.726830     -5.411122      1.610471
  H      -2.107665     -3.447842      2.723017
60
Coordinates from ORCA-job file E -2653.490761444164
  C      -3.907158     -0.165675      3.807457
  O      -3.281072     -1.367864      3.439746
  C      -2.703271     -1.457909      2.227192
  C      -2.714361     -0.418816      1.290488
  C      -2.075405     -0.617728      0.057850
  O      -2.022960      0.322049     -0.902172
  C      -2.571011      1.593716     -0.667673
  C      -1.457379     -1.839066     -0.241713
  S      -0.431465     -2.046233     -1.718943
  C      -1.623630     -1.535634     -2.987993
  C      -2.925218     -2.030466     -2.968482
  C      -3.802484     -1.690172     -3.994795
  C      -3.358113     -0.863214     -5.027226
  Cl     -4.454203     -0.433864     -6.306085
  C      -2.052727     -0.377100     -5.049730
  C      -1.176912     -0.722842     -4.022096
  C       0.864441     -1.018347     -1.767090
  C       1.039974      0.323321     -1.079479
  N       2.400611     -0.120451     -0.677936
  S       3.724288      0.792779     -1.098399
  O       4.849319     -0.126080     -1.047079
  O       3.473398      1.581148     -2.298991
  C       3.852164      1.938077      0.256315
  C       3.682469      3.296943      0.019091
  C       3.842284      4.191275      1.077673
  C       4.173663      3.740319      2.358813
  C       4.386380      4.710901      3.490580
  C       4.336818      2.361569      2.565858
  C       4.184229      1.456859      1.522671
  C       2.269926     -1.440652     -1.363011
  C      -1.451049     -2.866503      0.720776
  O      -0.822045     -4.002975      0.374608
  C      -0.730519     -5.044550      1.314924
  C      -2.077597     -2.680180      1.951121
  H      -4.743973      0.074911      3.131773
  H      -3.194164      0.674859      3.812120
  H      -4.297357     -0.311808      4.820373
  H      -3.196830      0.528594      1.510496
  H      -2.085162      2.085309      0.190770
  H      -2.381862      2.179321     -1.573521
  H      -3.656982      1.535941     -0.493003
  H      -3.259480     -2.670276     -2.148751
  H      -4.827708     -2.059960     -4.004111
  H      -1.729637      0.264771     -5.869525
  H      -0.142220     -0.371196     -4.000649
  H       0.408756      0.523521     -0.194970
  H       1.050533      1.216381     -1.728853
  H       3.437396      3.634059     -0.988923
  H       3.713724      5.261579      0.902011
  H       3.981662      4.318288      4.433601
  H       5.461226      4.893379      3.644687
  H       3.910428      5.678215      3.283216
  H       4.596857      1.997269      3.562256
  H       4.321962      0.384976      1.673190
  H       2.996749     -1.571021     -2.181783
  H       2.387526     -2.278088     -0.656016
  H      -0.185560     -4.721259      2.216150
  H      -0.177222     -5.853439      0.826404
  H      -1.727689     -5.410476      1.606288
  H      -2.102357     -3.446482      2.721999
60
Coordinates from ORCA-job file E -2653.490784049008
  C      -3.905676     -0.166855      3.807330
  O      -3.282347     -1.370154      3.438576
  C      -2.703768     -1.459988      2.226364
  C      -2.711404     -0.419515      1.291172
  C      -2.071268     -0.618002      0.059101
  O      -2.015253      0.323092     -0.899387
  C      -2.567302      1.593341     -0.666342
  C      -1.455141     -1.839971     -0.241342
  S      -0.428766     -2.046870     -1.718353
  C      -1.621719     -1.535416     -2.986475
  C      -2.924119     -2.028126     -2.964850
  C      -3.802461     -1.686645     -3.989853
  C      -3.358323     -0.860817     -5.023286
  Cl     -4.455749     -0.429851     -6.300449
  C      -2.052129     -0.377047     -5.048079
  C      -1.175277     -0.723804     -4.021641
  C       0.867155     -1.019029     -1.766501
  C       1.043374      0.321938     -1.077709
  N       2.403999     -0.122610     -0.676942
  S       3.727418      0.791736     -1.096031
  O       4.853823     -0.125284     -1.042439
  O       3.477357      1.578986     -2.297501
  C       3.851625      1.938602      0.257540
  C       3.678647      3.296721      0.018527
  C       3.837647      4.192930      1.075584
  C       4.171517      3.744497      2.356969
  C       4.384408      4.717279      3.486781
  C       4.337558      2.366376      2.565920
  C       4.185909      1.459817      1.524215
  C       2.273210     -1.441567     -1.364345
  C      -1.453057     -2.869275      0.719239
  O      -0.827384     -4.007206      0.371812
  C      -0.741835     -5.051243      1.309972
  C      -2.080913     -2.683435      1.949034
  H      -4.741419      0.076674      3.131388
  H      -3.190563      0.671870      3.813555
  H      -4.296940     -0.313234      4.819797
  H      -3.191598      0.528841      1.512173
  H      -2.084438      2.086561      0.192863
  H      -2.378097      2.179166     -1.572041
  H      -3.653413      1.532450     -0.493694
  H      -3.258239     -2.667026     -2.144371
  H      -4.828368     -2.054610     -3.997368
  H      -1.729270      0.263919     -5.868674
  H      -0.139998     -0.373827     -4.001954
  H       0.412370      0.521767     -0.193000
  H       1.054027      1.215429     -1.726535
  H       3.432476      3.631862     -0.989888
  H       3.706950      5.262720      0.898418
  H       3.983187      4.324934      4.431396
  H       5.459141      4.902934      3.637870
  H       3.905285      5.682959      3.279168
  H       4.599586      2.004100      3.562533
  H       4.326634      0.388488      1.675943
  H       2.999277     -1.569911     -2.184192
  H       2.391789     -2.280453     -0.659269
  H      -0.197315     -4.732185      2.212952
  H      -0.190903     -5.861273      0.820681
  H      -1.741062     -5.413773      1.598586
  H      -2.108855     -3.450990      2.718552
60
Coordinates from ORCA-job file E -2653.490761111873
  C      -3.911463     -0.169663      3.807229
  O      -3.288827     -1.373154      3.437999
  C      -2.709209     -1.462329      2.226208
  C      -2.715259     -0.421047      1.291892
  C      -2.074088     -0.618993      0.060284
  O      -2.016525      0.322729     -0.897510
  C      -2.571750      1.591816     -0.665735
  C      -1.458259     -1.841039     -0.240490
  S      -0.429282     -2.046209     -1.715803
  C      -1.620839     -1.537155     -2.986282
  C      -2.921433     -2.034713     -2.968851
  C      -3.797970     -1.695994     -3.996328
  C      -3.353812     -0.867936     -5.027961
  Cl     -4.448723     -0.440985     -6.308647
  C      -2.049469     -0.379022     -5.048401
  C      -1.174383     -0.723115     -4.019556
  C       0.864963     -1.016262     -1.761327
  C       1.039399      0.324171     -1.071105
  N       2.401852     -0.117829     -0.673347
  S       3.722275      0.799019     -1.096583
  O       4.850017     -0.116723     -1.049319
  O       3.465875      1.587970     -2.295590
  C       3.851782      1.944281      0.257796
  C       3.678234      3.302702      0.020796
  C       3.843133      4.197951      1.077756
  C       4.183350      3.748221      2.357018
  C       4.402968      4.719967      3.486431
  C       4.349584      2.369817      2.564011
  C       4.192365      1.464219      1.522299
  C       2.272080     -1.436791     -1.361126
  C      -1.458624     -2.871545      0.718836
  O      -0.834851     -4.010256      0.370509
  C      -0.750512     -5.054918      1.308111
  C      -2.087446     -2.686184      1.948211
  H      -4.746932      0.074806      3.131288
  H      -3.195756      0.668543      3.814118
  H      -4.303106     -0.316336      4.819511
  H      -3.194855      0.527527      1.513284
  H      -2.090293      2.087103      0.193104
  H      -2.383789      2.177288     -1.571922
  H      -3.657696      1.528359     -0.493038
  H      -3.255427     -2.675586     -2.149850
  H      -4.822396     -2.067973     -4.007268
  H      -1.726595      0.263562     -5.867724
  H      -0.140407     -0.369469     -3.996833
  H       0.409747      0.521256     -0.184813
  H       1.046627      1.218641     -1.718625
  H       3.427560      3.638756     -0.986184
  H       3.712248      5.267968      0.902123
  H       4.005815      4.327491      4.432698
  H       5.478662      4.904122      3.632414
  H       3.924103      5.686391      3.281780
  H       4.616853      2.006664      3.558901
  H       4.333778      0.392725      1.672243
  H       2.997565     -1.563953     -2.181666
  H       2.392741     -2.275570     -0.656259
  H      -0.205264     -4.737051      2.211065
  H      -0.200795     -5.865417      0.818231
  H      -1.750172     -5.416261      1.596688
  H      -2.117370     -3.454588      2.716805
