60
Coordinates from ORCA-job file
  C   -3.91146266926851     -0.16966335529638      3.80722941973987
  O   -3.28882686135918     -1.37315442079873      3.43799863451608
  C   -2.70920939132812     -1.46232912359997      2.22620784758088
  C   -2.71525938673866     -0.42104688592019      1.29189170507502
  C   -2.07408779036676     -0.61899302022538      0.06028373392513
  O   -2.01652549254907      0.32272933702548     -0.89750989847011
  C   -2.57175007147135      1.59181583588021     -0.66573536905275
  C   -1.45825948002810     -1.84103891241740     -0.24048989675786
  S   -0.42928166041942     -2.04620866168494     -1.71580297084750
  C   -1.62083870078459     -1.53715456240350     -2.98628245795766
  C   -2.92143284602732     -2.03471291742523     -2.96885067103681
  C   -3.79796960613611     -1.69599360289994     -3.99632776279061
  C   -3.35381176990497     -0.86793575366492     -5.02796115033947
  Cl  -4.44872345164855     -0.44098466953160     -6.30864669659750
  C   -2.04946929129259     -0.37902153528023     -5.04840102264915
  C   -1.17438262546726     -0.72311466057034     -4.01955589197787
  C   0.86496323239022     -1.01626239218204     -1.76132696678454
  C   1.03939933954533      0.32417114073687     -1.07110485219342
  N   2.40185195812062     -0.11782947129472     -0.67334685174728
  S   3.72227485038878      0.79901881206997     -1.09658311591616
  O   4.85001729874328     -0.11672314395921     -1.04931861009311
  O   3.46587506463480      1.58797026940105     -2.29558974843575
  C   3.85178153792736      1.94428130632088      0.25779615783427
  C   3.67823386090503      3.30270213136127      0.02079606793816
  C   3.84313267072122      4.19795051637696      1.07775623779540
  C   4.18335035280501      3.74822100394148      2.35701845472760
  C   4.40296762942921      4.71996669199437      3.48643095994907
  C   4.34958383122171      2.36981694551374      2.56401126038277
  C   4.19236454994793      1.46421894638757      1.52229931286276
  C   2.27208012566502     -1.43679116646130     -1.36112641839417
  C   -1.45862432475205     -2.87154493566665      0.71883589534410
  O   -0.83485051608678     -4.01025594090090      0.37050853817034
  C   -0.75051228984872     -5.05491824374663      1.30811134607720
  C   -2.08744636510328     -2.68618414876321      1.94821144761939
  H   -4.74693190399237      0.07480595017040      3.13128784012860
  H   -3.19575590249958      0.66854332021372      3.81411807393687
  H   -4.30310604689571     -0.31633576434488      4.81951082388077
  H   -3.19485468666756      0.52752701745361      1.51328410162421
  H   -2.09029314542043      2.08710320804070      0.19310438895009
  H   -2.38378940524149      2.17728809277553     -1.57192209045856
  H   -3.65769621699488      1.52835927033494     -0.49303787515479
  H   -3.25542707753955     -2.67558568135945     -2.14985038851700
  H   -4.82239609219005     -2.06797259880792     -4.00726777991030
  H   -1.72659456620024      0.26356178724475     -5.86772413082929
  H   -0.14040659286573     -0.36946920682782     -3.99683256624194
  H   0.40974719086141      0.52125582497518     -0.18481282374054
  H   1.04662682047814      1.21864092435874     -1.71862465239047
  H   3.42756004502743      3.63875619701977     -0.98618441944163
  H   3.71224829534715      5.26796808389437      0.90212346871831
  H   4.00581534368235      4.32749050577676      4.43269806078693
  H   5.47866235106509      4.90412172320784      3.63241381175969
  H   3.92410329445933      5.68639067901728      3.28178047975646
  H   4.61685309070776      2.00666384697099      3.55890083507318
  H   4.33377835347282      0.39272463425959      1.67224310007847
  H   2.99756541715809     -1.56395323289479     -2.18166579588876
  H   2.39274068083924     -2.27556979400981     -0.65625914128310
  H   -0.20526391975043     -4.73705108436094      2.21106522705916
  H   -0.20079537769478     -5.86541686398720      0.81823125089459
  H   -1.75017181127786     -5.41626056729139      1.59668805603844
  H   -2.11736984973226     -3.45458768414644      2.71680547767431
