26
Coordinates from ORCA-job file
  C   1.94046689510988     -1.27148686807601     -0.11121984857000
  C   2.73149386574018      0.04844575498509     -0.21684900481837
  N   1.80005468363519      1.18756904107639     -0.25932702261509
  C   0.64436554795704      0.96463916969493      0.60151979215114
  C   -0.29457306505581     -0.05995224304312     -0.08236648728274
  C   0.57763411711643     -1.12166368039131     -0.78984441823991
  C   -1.30281416573346     -0.63023833469025      0.95470613454468
  C   -2.69844988951377     -0.26765634025146      0.41267201485215
  C   -2.40393345517143      0.97160415310973     -0.43529051440288
  N   -1.16281697975550      0.57478496360833     -1.09228418521532
  H   2.51876554070315     -2.08267813412987     -0.56727130999346
  H   1.79888521706893     -1.54526242758897      0.94259622453710
  H   3.43595882411217      0.12111909577368      0.62937076631396
  H   3.32266377405046      0.05667102115357     -1.14096113297099
  H   2.27862524755188      2.04860142875519     -0.02442249641983
  H   0.93112704398228      0.60277392090897      1.60627983449560
  H   0.10431779731564      1.90886259063306      0.74264207812197
  H   0.03920734064661     -2.07575187076815     -0.82705310212219
  H   0.72358882538682     -0.79915157857534     -1.82672195217779
  H   -1.17267289009313     -1.70761704609775      1.10019592651216
  H   -1.14736022989530     -0.15275577494170      1.93031083954101
  H   -3.08086021102787     -1.06357680519948     -0.23552758002068
  H   -3.42978820722560     -0.08503224984927      1.20665630409211
  H   -2.29645860886414      1.85726254814835      0.21945718296514
  H   -3.18272755687576      1.18928465476662     -1.17424089486245
  H   -0.67499946116488      1.33100501098878     -1.56312714841535
