26
Coordinates from ORCA-job file E -424.222461153369
  C       1.779600     -1.341300     -0.240000
  C       2.726200     -0.120300     -0.231100
  N       2.004500      1.166500     -0.221700
  C       0.815000      1.097100      0.633500
  C      -0.267800      0.184600     -0.024300
  C       0.410300     -0.973200     -0.819100
  C      -1.207600     -0.375300      1.057100
  C      -2.554200     -0.443400      0.384100
  C      -2.515700      0.691600     -0.619000
  N      -1.114900      0.937200     -0.971700
  H       2.231200     -2.163000     -0.837000
  H       1.644100     -1.715300      0.798600
  H       3.401800     -0.189100      0.651300
  H       3.362900     -0.152500     -1.141100
  H       2.646400      1.895800      0.168400
  H       1.104700      0.702700      1.635700
  H       0.418100      2.120500      0.811400
  H      -0.236700     -1.877100     -0.848800
  H       0.565500     -0.662400     -1.876800
  H      -0.889900     -1.370400      1.439200
  H      -1.283700      0.325700      1.919100
  H      -2.663000     -1.414800     -0.146800
  H      -3.385200     -0.321600      1.112400
  H      -2.965100      1.603700     -0.163700
  H      -3.092300      0.426200     -1.530500
  H      -0.934500      1.967900     -0.939300
26
Coordinates from ORCA-job file E -424.230851629800
  C       1.789256     -1.331944     -0.217430
  C       2.749008     -0.124490     -0.235238
  N       2.005183      1.148762     -0.234900
  C       0.827605      1.067278      0.626151
  C      -0.258121      0.183708     -0.017084
  C       0.427242     -0.956799     -0.806973
  C      -1.209241     -0.367338      1.063943
  C      -2.569004     -0.458025      0.368758
  C      -2.545904      0.714823     -0.622053
  N      -1.126968      0.944182     -0.945321
  H       2.233036     -2.153238     -0.791054
  H       1.657906     -1.697850      0.810007
  H       3.429473     -0.191960      0.631677
  H       3.369276     -0.154429     -1.139354
  H       2.619380      1.876096      0.108396
  H       1.083854      0.660382      1.623066
  H       0.426770      2.074998      0.792796
  H      -0.229165     -1.836586     -0.836014
  H       0.559889     -0.624692     -1.840907
  H      -0.869949     -1.335269      1.450270
  H      -1.270562      0.329884      1.911247
  H      -2.668239     -1.411665     -0.162779
  H      -3.401230     -0.372829      1.074481
  H      -3.001670      1.606776     -0.165619
  H      -3.114961      0.479838     -1.529958
  H      -0.913162      1.930187     -0.916208
26
Coordinates from ORCA-job file E -424.231930079011
  C       1.782511     -1.331489     -0.198359
  C       2.752438     -0.132577     -0.232869
  N       2.003296      1.136048     -0.244164
  C       0.831984      1.063802      0.623021
  C      -0.258775      0.183612     -0.019310
  C       0.432606     -0.952310     -0.810711
  C      -1.210799     -0.366120      1.061888
  C      -2.561870     -0.477970      0.351422
  C      -2.553943      0.728376     -0.600338
  N      -1.137325      0.944441     -0.939760
  H       2.226122     -2.170686     -0.744982
  H       1.638114     -1.675798      0.834276
  H       3.436483     -0.195219      0.631032
  H       3.365966     -0.170930     -1.140695
  H       2.613736      1.885583      0.060779
  H       1.078426      0.656187      1.621615
  H       0.434889      2.073488      0.783753
  H      -0.230338     -1.825947     -0.853609
  H       0.573396     -0.604924     -1.838216
  H      -0.856801     -1.320076      1.468480
  H      -1.282479      0.344716      1.896916
  H      -2.633746     -1.417476     -0.208484
  H      -3.406000     -0.439291      1.046678
  H      -2.997037      1.607233     -0.106999
  H      -3.140968      0.528940     -1.504719
  H      -0.900186      1.928186     -0.936747
26
Coordinates from ORCA-job file E -424.232618278811
  C       1.780929     -1.331988     -0.181762
  C       2.752530     -0.134641     -0.229634
  N       1.996954      1.128570     -0.251530
  C       0.829259      1.062969      0.619959
  C      -0.260322      0.177712     -0.021215
  C       0.438319     -0.955027     -0.811610
  C      -1.213479     -0.373831      1.057630
  C      -2.559087     -0.488872      0.337665
  C      -2.556006      0.745883     -0.574942
  N      -1.143659      0.933719     -0.941830
  H       2.227410     -2.184595     -0.705293
  H       1.625460     -1.654833      0.856321
  H       3.439788     -0.188853      0.632488
  H       3.361541     -0.180575     -1.140404
  H       2.601119      1.896109      0.017410
  H       1.074839      0.660641      1.621046
  H       0.431824      2.073634      0.774109
  H      -0.225843     -1.827000     -0.867496
  H       0.590354     -0.598441     -1.834662
  H      -0.854568     -1.321428      1.475295
  H      -1.294309      0.344569      1.885684
  H      -2.609184     -1.409889     -0.254987
  H      -3.411109     -0.489230      1.024921
  H      -2.969861      1.614870     -0.038548
  H      -3.168918      0.589503     -1.470752
  H      -0.884279      1.910824     -0.977963
26
Coordinates from ORCA-job file E -424.233161720622
  C       1.785514     -1.331614     -0.167717
  C       2.752736     -0.131087     -0.224964
  N       1.988518      1.125794     -0.256079
  C       0.820471      1.061440      0.614322
  C      -0.262655      0.166415     -0.026737
  C       0.446938     -0.963216     -0.811452
  C      -1.216963     -0.386628      1.050349
  C      -2.562177     -0.491826      0.328473
  C      -2.555790      0.767006     -0.546843
  N      -1.150476      0.911168     -0.953073
  H       2.238169     -2.191635     -0.673528
  H       1.622300     -1.637722      0.874289
  H       3.441184     -0.175668      0.636846
  H       3.360344     -0.181028     -1.136548
  H       2.585379      1.906561     -0.010062
  H       1.065910      0.666276      1.618279
  H       0.418042      2.071145      0.761198
  H      -0.213929     -1.836921     -0.876069
  H       0.608407     -0.603658     -1.832076
  H      -0.859938     -1.333965      1.469898
  H      -1.299733      0.333048      1.877194
  H      -2.602435     -1.393251     -0.294492
  H      -3.416675     -0.518444      1.012182
  H      -2.924716      1.629935      0.032252
  H      -3.200860      0.658506     -1.426892
  H      -0.867866      1.879170     -1.038850
26
Coordinates from ORCA-job file E -424.233649411465
  C       1.793943     -1.330060     -0.156160
  C       2.752955     -0.123195     -0.220059
  N       1.977843      1.126195     -0.258149
  C       0.808082      1.058146      0.609112
  C      -0.265460      0.151177     -0.033549
  C       0.457466     -0.974188     -0.811535
  C      -1.221282     -0.403071      1.042045
  C      -2.570426     -0.488111      0.324494
  C      -2.552691      0.789582     -0.519942
  N      -1.157396      0.881558     -0.967667
  H       2.255359     -2.193805     -0.647598
  H       1.625052     -1.623273      0.888677
  H       3.441933     -0.157880      0.641847
  H       3.360440     -0.173819     -1.131807
  H       2.565623      1.918316     -0.027855
  H       1.053650      0.670024      1.615839
  H       0.397186      2.065380      0.749268
  H      -0.197519     -1.851697     -0.882735
  H       0.626391     -0.613408     -1.830673
  H      -0.870116     -1.354412      1.457191
  H      -1.298660      0.313623      1.872039
  H      -2.611835     -1.370415     -0.325339
  H      -3.423796     -0.530479      1.008888
  H      -2.868743      1.648823      0.096409
  H      -3.229197      0.729898     -1.380808
  H      -0.849102      1.834891     -1.112033
26
Coordinates from ORCA-job file E -424.234095532377
  C       1.805688     -1.327222     -0.146886
  C       2.752771     -0.111154     -0.215508
  N       1.964573      1.129680     -0.258886
  C       0.792472      1.053059      0.604243
  C      -0.268562      0.132296     -0.041287
  C       0.469618     -0.987596     -0.811566
  C      -1.226784     -0.422441      1.033163
  C      -2.582581     -0.478602      0.324504
  C      -2.545704      0.813687     -0.494617
  N      -1.164065      0.845884     -0.984623
  H       2.278114     -2.191035     -0.627610
  H       1.633424     -1.611712      0.899822
  H       3.441834     -0.135479      0.646687
  H       3.360951     -0.159434     -1.127005
  H       2.542337      1.931029     -0.035934
  H       1.038753      0.671582      1.613385
  H       0.369819      2.056228      0.738470
  H      -0.177379     -1.870598     -0.886644
  H       0.643327     -0.627410     -1.830292
  H      -0.885751     -1.381573      1.438345
  H      -1.291840      0.287285      1.870178
  H      -2.635593     -1.343699     -0.347301
  H      -3.432249     -0.525690      1.013119
  H      -2.802962      1.671098      0.152465
  H      -3.251007      0.802826     -1.333917
  H      -0.829506      1.778792     -1.192405
26
Coordinates from ORCA-job file E -424.234497266007
  C       1.820701     -1.322941     -0.140538
  C       2.751702     -0.094537     -0.211898
  N       1.947637      1.136087     -0.257975
  C       0.773628      1.045480      0.601151
  C      -0.271740      0.109358     -0.048723
  C       0.483209     -1.003220     -0.811978
  C      -1.233680     -0.445721      1.024124
  C      -2.599284     -0.461613      0.330900
  C      -2.534063      0.838261     -0.474047
  N      -1.168669      0.805464     -1.001185
  H       2.306681     -2.183415     -0.613713
  H       1.647056     -1.602295      0.907316
  H       3.440904     -0.108033      0.650385
  H       3.360722     -0.137046     -1.123225
  H       2.513739      1.945938     -0.036308
  H       1.022039      0.670100      1.612103
  H       0.335408      2.042621      0.730652
  H      -0.153288     -1.893520     -0.889457
  H       0.659614     -0.644055     -1.830874
  H      -0.908554     -1.417277      1.412135
  H      -1.278144      0.251664      1.872669
  H      -2.676268     -1.312229     -0.356820
  H      -3.441577     -0.500695      1.028946
  H      -2.728635      1.696527      0.194492
  H      -3.262795      0.874153     -1.292239
  H      -0.806642      1.710744     -1.275992
26
Coordinates from ORCA-job file E -424.234801516813
  C       1.838989     -1.316369     -0.131078
  C       2.749570     -0.073531     -0.211488
  N       1.926047      1.144968     -0.263148
  C       0.753142      1.035612      0.595640
  C      -0.275645      0.082906     -0.057823
  C       0.498906     -1.024002     -0.808113
  C      -1.243935     -0.471241      1.013604
  C      -2.615728     -0.441942      0.330966
  C      -2.515534      0.868253     -0.450370
  N      -1.173206      0.762524     -1.021392
  H       2.340032     -2.171035     -0.598625
  H       1.668930     -1.592995      0.918063
  H       3.440353     -0.071169      0.649390
  H       3.357493     -0.111238     -1.123613
  H       2.481669      1.959852     -0.033135
  H       1.005464      0.664926      1.607190
  H       0.297273      2.025196      0.722018
  H      -0.125797     -1.923143     -0.878106
  H       0.670868     -0.672990     -1.830718
  H      -0.938387     -1.457360      1.379899
  H      -1.264028      0.207913      1.877465
  H      -2.722564     -1.280934     -0.366964
  H      -3.453974     -0.465271      1.034402
  H      -2.646235      1.724408      0.237640
  H      -3.265176      0.954891     -1.244696
  H      -0.788827      1.641571     -1.347107
26
Coordinates from ORCA-job file E -424.235104904516
  C       1.856968     -1.310188     -0.131589
  C       2.746848     -0.051749     -0.207327
  N       1.905213      1.154569     -0.258401
  C       0.730977      1.024661      0.595847
  C      -0.278075      0.056034     -0.064576
  C       0.513750     -1.039916     -0.811713
  C      -1.251012     -0.500259      1.004135
  C      -2.636727     -0.410872      0.353585
  C      -2.498746      0.887986     -0.444928
  N      -1.172487      0.721877     -1.033686
  H       2.374506     -2.156096     -0.597365
  H       1.686875     -1.588544      0.917054
  H       3.435583     -0.039740      0.655106
  H       3.357659     -0.078227     -1.118081
  H       2.446699      1.977067     -0.022076
  H       0.987011      0.658686      1.608217
  H       0.255472      2.005386      0.720105
  H      -0.096641     -1.948423     -0.884513
  H       0.686900     -0.687973     -1.834232
  H      -0.972979     -1.506273      1.336674
  H      -1.235379      0.152556      1.887794
  H      -2.792673     -1.242459     -0.343550
  H      -3.455892     -0.400796      1.079511
  H      -2.573581      1.753273      0.240035
  H      -3.258173      1.004700     -1.226259
  H      -0.762396      1.564521     -1.419865
26
Coordinates from ORCA-job file E -424.235338350870
  C       1.878289     -1.300780     -0.125026
  C       2.743505     -0.025873     -0.208782
  N       1.878937      1.164711     -0.261041
  C       0.708478      1.010080      0.594557
  C      -0.282441      0.025524     -0.071474
  C       0.530906     -1.061624     -0.807901
  C      -1.263235     -0.532752      0.992454
  C      -2.655838     -0.378208      0.365268
  C      -2.474875      0.914469     -0.434112
  N      -1.172989      0.679072     -1.051014
  H       2.412760     -2.138494     -0.586405
  H       1.713253     -1.577492      0.924810
  H       3.434873      0.002555      0.650989
  H       3.351475     -0.044493     -1.121596
  H       2.406120      1.994872     -0.018618
  H       0.972167      0.645633      1.605376
  H       0.214158      1.981171      0.721513
  H      -0.062780     -1.981462     -0.873239
  H       0.698339     -0.715903     -1.833655
  H      -1.016048     -1.558539      1.286460
  H      -1.212598      0.085778      1.898667
  H      -2.862891     -1.200428     -0.329183
  H      -3.460398     -0.332217      1.106130
  H      -2.493765      1.782556      0.252004
  H      -3.243578      1.069318     -1.199262
  H      -0.742125      1.492326     -1.477020
26
Coordinates from ORCA-job file E -424.235535627140
  C       1.900518     -1.291063     -0.120655
  C       2.740439     -0.000020     -0.211283
  N       1.853047      1.174158     -0.263320
  C       0.687124      0.994822      0.594178
  C      -0.286449     -0.004345     -0.076981
  C       0.547417     -1.083357     -0.802485
  C      -1.276663     -0.565228      0.980767
  C      -2.673558     -0.342228      0.379903
  C      -2.452041      0.935087     -0.432997
  N      -1.169806      0.642633     -1.067407
  H       2.450558     -2.118987     -0.581436
  H       1.743686     -1.568904      0.930037
  H       3.434652      0.044478      0.645367
  H       3.344896     -0.010250     -1.126555
  H       2.365305      2.012111     -0.015358
  H       0.959205      0.630810      1.602661
  H       0.176363      1.956640      0.726578
  H      -0.026962     -2.015723     -0.856545
  H       0.706361     -0.746106     -1.832550
  H      -1.066809     -1.611308      1.228139
  H      -1.189201      0.011223      1.911041
  H      -2.940037     -1.158531     -0.300566
  H      -3.457410     -0.249038      1.138432
  H      -2.425467      1.809596      0.244904
  H      -3.225781      1.114421     -1.187378
  H      -0.719688      1.438908     -1.506591
26
Coordinates from ORCA-job file E -424.235646773745
  C       1.922122     -1.280866     -0.115321
  C       2.735196      0.026295     -0.216141
  N       1.823763      1.182016     -0.263015
  C       0.664224      0.978109      0.597615
  C      -0.291174     -0.034760     -0.079651
  C       0.563157     -1.105314     -0.794950
  C      -1.291404     -0.598421      0.968374
  C      -2.688110     -0.305363      0.392999
  C      -2.424720      0.956669     -0.430884
  N      -1.166299      0.605396     -1.081209
  H       2.487694     -2.100091     -0.572980
  H       1.774101     -1.555653      0.937410
  H       3.435588      0.087052      0.634360
  H       3.332043      0.025116     -1.136536
  H       2.318435      2.031828     -0.020240
  H       0.945711      0.615065      1.603658
  H       0.136591      1.929991      0.735516
  H       0.008091     -2.049699     -0.838952
  H       0.714505     -0.776417     -1.828933
  H      -1.120640     -1.661276      1.169297
  H      -1.171518     -0.066507      1.920912
  H      -3.011243     -1.110022     -0.276622
  H      -3.449191     -0.169584      1.168210
  H      -2.350834      1.833048      0.241154
  H      -3.201508      1.163991     -1.175065
  H      -0.694878      1.379196     -1.539104
26
Coordinates from ORCA-job file E -424.235689336012
  C       1.936366     -1.274060     -0.112532
  C       2.732474      0.042851     -0.218313
  N       1.805762      1.186097     -0.260820
  C       0.649831      0.967392      0.600972
  C      -0.293520     -0.053944     -0.081111
  C       0.573779     -1.118446     -0.790257
  C      -1.300811     -0.621200      0.959011
  C      -2.696312     -0.278129      0.405832
  C      -2.409609      0.967418     -0.435252
  N      -1.161987      0.584879     -1.088962
  H       2.511251     -2.087224     -0.569411
  H       1.794472     -1.548005      0.941209
  H       3.437215      0.112927      0.627870
  H       3.323687      0.048445     -1.142400
  H       2.288462      2.044262     -0.023677
  H       0.936135      0.604633      1.605546
  H       0.113019      1.913427      0.742623
  H       0.031637     -2.070485     -0.827715
  H       0.719905     -0.795393     -1.826909
  H      -1.160419     -1.694966      1.121276
  H      -1.155784     -0.127039      1.927979
  H      -3.062360     -1.077240     -0.247980
  H      -3.436748     -0.107644      1.194102
  H      -2.312232      1.850315      0.224813
  H      -3.187397      1.181994     -1.176197
  H      -0.677118      1.348936     -1.549796
26
Coordinates from ORCA-job file E -424.235695855848
  C       1.940937     -1.271271     -0.111148
  C       2.730982      0.049199     -0.217387
  N       1.798795      1.187755     -0.259682
  C       0.643448      0.964031      0.601442
  C      -0.294883     -0.061091     -0.082460
  C       0.577863     -1.122582     -0.789521
  C      -1.303573     -0.630547      0.954804
  C      -2.698697     -0.267737      0.411765
  C      -2.402372      0.972575     -0.434151
  N      -1.162745      0.573587     -1.092601
  H       2.519745     -2.082202     -0.567022
  H       1.799833     -1.544745      0.942809
  H       3.435872      0.122583      0.628409
  H       3.321603      0.057548     -1.141852
  H       2.276863      2.049098     -0.024898
  H       0.930690      0.602400      1.606140
  H       0.102560      1.907784      0.742708
  H       0.040028     -2.077027     -0.826220
  H       0.723445     -0.800519     -1.826598
  H      -1.173703     -1.707693      1.102245
  H      -1.148783     -0.151516      1.929780
  H      -3.080595     -1.062566     -0.238075
  H      -3.430690     -0.086109      1.205387
  H      -2.292039      1.856569      0.222478
  H      -3.181097      1.193713     -1.172117
  H      -0.673786      1.328563     -1.564332
26
Coordinates from ORCA-job file E -424.235696536884
  C       1.940467     -1.271487     -0.111220
  C       2.731494      0.048446     -0.216849
  N       1.800055      1.187569     -0.259327
  C       0.644366      0.964639      0.601520
  C      -0.294573     -0.059952     -0.082366
  C       0.577634     -1.121664     -0.789844
  C      -1.302814     -0.630238      0.954706
  C      -2.698450     -0.267656      0.412672
  C      -2.403933      0.971604     -0.435291
  N      -1.162817      0.574785     -1.092284
  H       2.518766     -2.082678     -0.567271
  H       1.798885     -1.545262      0.942596
  H       3.435959      0.121119      0.629371
  H       3.322664      0.056671     -1.140961
  H       2.278625      2.048601     -0.024422
  H       0.931127      0.602774      1.606280
  H       0.104318      1.908863      0.742642
  H       0.039207     -2.075752     -0.827053
  H       0.723589     -0.799152     -1.826722
  H      -1.172673     -1.707617      1.100196
  H      -1.147360     -0.152756      1.930311
  H      -3.080860     -1.063577     -0.235528
  H      -3.429788     -0.085032      1.206656
  H      -2.296459      1.857263      0.219457
  H      -3.182728      1.189285     -1.174241
  H      -0.674999      1.331005     -1.563127
