16
Coordinates from ORCA-job file E -268.050493858085
  C      -0.547300      0.995800     -0.498300
  C       0.859900      0.996600      0.097800
  C       1.478300     -0.415000      0.043700
  N       0.464800     -1.484300      0.056900
  N      -0.629600     -1.097500      0.865300
  C      -1.432500     -0.058600      0.192700
  H      -1.002500      2.004300     -0.392300
  H      -0.477300      0.767400     -1.584800
  H       1.504200      1.715000     -0.453600
  H       0.801600      1.334100      1.156300
  H       2.160500     -0.550200      0.910200
  H       2.094300     -0.510000     -0.877800
  H       0.134800     -1.676300     -0.920600
  H      -1.231900     -1.941800      1.005000
  H      -2.112400     -0.521600     -0.557400
  H      -2.064800      0.442000      0.957000
16
Coordinates from ORCA-job file E -268.054869241341
  C      -0.546163      0.985764     -0.508295
  C       0.854910      0.993322      0.114539
  C       1.479620     -0.418221      0.039466
  N       0.468426     -1.480424      0.026639
  N      -0.619636     -1.073656      0.849536
  C      -1.451460     -0.054156      0.187897
  H      -1.001301      1.978573     -0.433225
  H      -0.465651      0.758582     -1.578881
  H       1.494689      1.715320     -0.405872
  H       0.784781      1.314700      1.158902
  H       2.147203     -0.578190      0.893549
  H       2.078427     -0.528871     -0.872436
  H       0.148385     -1.640131     -0.928060
  H      -1.168304     -1.897052      1.052143
  H      -2.136864     -0.501887     -0.553422
  H      -2.066962      0.426225      0.957621
16
Coordinates from ORCA-job file E -268.055294225766
  C      -0.541448      0.977515     -0.517628
  C       0.849281      0.990840      0.127709
  C       1.480251     -0.417165      0.032607
  N       0.464496     -1.478399      0.011660
  N      -0.613345     -1.063563      0.842808
  C      -1.454136     -0.050962      0.187469
  H      -1.000215      1.970558     -0.476880
  H      -0.443111      0.727302     -1.581751
  H       1.492375      1.728524     -0.365438
  H       0.759367      1.288727      1.177386
  H       2.150550     -0.589863      0.881567
  H       2.072003     -0.520777     -0.884988
  H       0.137639     -1.615283     -0.946321
  H      -1.147174     -1.886134      1.095458
  H      -2.148586     -0.493814     -0.548160
  H      -2.057848      0.432394      0.964603
16
Coordinates from ORCA-job file E -268.055365848746
  C      -0.539607      0.975578     -0.521513
  C       0.846843      0.989602      0.133259
  C       1.480203     -0.416782      0.027933
  N       0.463004     -1.478942      0.007025
  N      -0.612506     -1.060776      0.838151
  C      -1.454870     -0.049829      0.185648
  H      -0.999784      1.969201     -0.496492
  H      -0.431936      0.712553     -1.582230
  H       1.492448      1.736375     -0.343816
  H       0.745684      1.271646      1.186883
  H       2.155193     -0.594387      0.872870
  H       2.067331     -0.513670     -0.894077
  H       0.133462     -1.607922     -0.951500
  H      -1.138077     -1.878744      1.120801
  H      -2.153341     -0.490260     -0.548301
  H      -2.053947      0.436258      0.965459
16
Coordinates from ORCA-job file E -268.055369026712
  C      -0.539585      0.976256     -0.521446
  C       0.846780      0.989492      0.133606
  C       1.480109     -0.416734      0.027277
  N       0.463167     -1.479198      0.007911
  N      -0.613032     -1.060705      0.837277
  C      -1.454978     -0.049780      0.184674
  H      -0.999657      1.969853     -0.495716
  H      -0.431665      0.713716     -1.582223
  H       1.492770      1.736786     -0.342062
  H       0.745041      1.269862      1.187560
  H       2.156847     -0.593892      0.870913
  H       2.065728     -0.512826     -0.895713
  H       0.134350     -1.611378     -0.950419
  H      -1.138157     -1.877590      1.124443
  H      -2.152832     -0.490124     -0.549951
  H      -2.054786      0.436161      0.963969
16
Coordinates from ORCA-job file E -268.055369875254
  C      -0.539535      0.976830     -0.521266
  C       0.846726      0.989336      0.133955
  C       1.479979     -0.416742      0.026723
  N       0.463170     -1.479320      0.008940
  N      -0.613294     -1.060207      0.837162
  C      -1.455074     -0.049867      0.183775
  H      -0.999460      1.970465     -0.494177
  H      -0.431605      0.715535     -1.582348
  H       1.492959      1.736809     -0.341114
  H       0.744935      1.268940      1.188113
  H       2.158242     -0.593525      0.869247
  H       2.064209     -0.512573     -0.897185
  H       0.134909     -1.614514     -0.949138
  H      -1.138089     -1.876322      1.126782
  H      -2.151811     -0.490634     -0.551698
  H      -2.056161      0.435689      0.962330
