16
Coordinates from ORCA-job file
  C   -0.53953452679794      0.97682993741510     -0.52126564595163
  C   0.84672647637018      0.98933561538981      0.13395522691057
  C   1.47997858266789     -0.41674238321739      0.02672278036564
  N   0.46316994568357     -1.47932016950489      0.00894045693307
  N   -0.61329419534532     -1.06020716374017      0.83716183008819
  C   -1.45507419016806     -0.04986677416634      0.18377476562555
  H   -0.99945971940320      1.97046543490207     -0.49417703106695
  H   -0.43160523464805      0.71553473328904     -1.58234800977103
  H   1.49295893629760      1.73680938809985     -0.34111402054069
  H   0.74493453596472      1.26894005678811      1.18811263885297
  H   2.15824233313040     -0.59352473150263      0.86924675303467
  H   2.06420877381785     -0.51257287103745     -0.89718527483115
  H   0.13490914629715     -1.61451400106398     -0.94913849663544
  H   -1.13808891924029     -1.87632198667887      1.12678151234769
  H   -2.15181124023858     -0.49063365932178     -0.55169755244438
  H   -2.05616070438792      0.43568857434952      0.96233006708293
