35
Coordinates from ORCA-job file
  C   -4.15728386213231      1.69069191566204     -1.69099275657362
  O   -3.73737319971456      1.15326410693904     -0.45555925560136
  C   -2.58586165224700      0.45770468465474     -0.40618235944504
  C   -2.22705069464212     -0.02360483880424      0.85996044487138
  C   -1.05745284340278     -0.76877572476417      1.00218213184012
  O   -0.64119857295580     -1.25788085096792      2.18053580125454
  C   -1.43852865306975     -1.04356824425981      3.32552746845235
  C   -0.23761462461624     -1.03861778886633     -0.11776587315692
  S   1.18947112585239     -2.06868660607660      0.06032138461083
  C   2.42725561617068     -0.91064763810505      0.60903247062293
  C   2.53509253092762      0.37368044330632      0.06361632577305
  C   3.54873126043079      1.23190524149333      0.48221932213954
  C   4.46675311650504      0.79111684710168      1.43534336891674
  Cl  5.74511862036224      1.85919065388922      1.94963889461111
  C   4.37745857158133     -0.48582388850669      1.98387421155362
  C   3.35088460513171     -1.33367300587558      1.56979391542537
  C   -0.60753646080721     -0.52471966913991     -1.37301811079978
  O   0.22723436766483     -0.77210493207037     -2.39725503495372
  C   -0.08164811939841     -0.26490815293794     -3.67797956630205
  C   -1.78463498580824      0.22401462003442     -1.52748723807284
  H   -3.42431710334233      2.41406856300319     -2.08062330282282
  H   -4.31550854379915      0.89783947336480     -2.43866148539658
  H   -5.10655723691544      2.20218313021506     -1.50115368229624
  H   -2.88301167082501      0.20250947479911      1.69745790844897
  H   -0.92514219102292     -1.53970559303641      4.15563965242502
  H   -1.53869248529530      0.03052343100794      3.54483136020595
  H   -2.44003223480582     -1.48284211800299      3.19858361830333
  H   1.82728864838517      0.69894472615509     -0.70146342255684
  H   3.63509387706609      2.23651787590420      0.06680948383257
  H   5.09474378368045     -0.80873152581797      2.73890101968166
  H   3.26557455270401     -2.33259260537462      2.00194366543536
  H   0.73511548625959     -0.57774241103185     -4.33672187605662
  H   -1.03139820043806     -0.67640359506721     -4.05284510113433
  H   -0.13965021903517      0.83428002513978     -3.66692094245354
  H   -2.06522260844831      0.61269397603572     -2.50178244078216
