35
Coordinates from ORCA-job file E -1663.424413884570
  C      -4.011900      2.049000     -1.354800
  O      -3.556100      1.306000     -0.228800
  C      -2.432600      0.465200     -0.233000
  C      -2.103000     -0.201900      0.949600
  C      -0.987400     -1.056500      1.008800
  O      -0.640000     -1.742900      2.183700
  C      -1.335600     -1.632400      3.420800
  C      -0.193600     -1.232500     -0.136900
  S       1.248400     -2.309300     -0.068400
  C       2.346700     -0.978000      0.422600
  C       3.013500     -0.222100     -0.550200
  C       3.864000      0.819700     -0.167400
  C       4.055700      1.105500      1.189100
  Cl      5.122000      2.413000      1.668900
  C       3.398200      0.344700      2.162500
  C       2.547600     -0.697300      1.780300
  C      -0.518800     -0.577500     -1.336700
  O       0.290100     -0.794800     -2.464100
  C       0.097800     -0.174700     -3.731100
  C      -1.638600      0.273900     -1.377300
  H      -3.226400      2.760700     -1.686100
  H      -4.279300      1.360400     -2.184000
  H      -4.914700      2.625600     -1.067200
  H      -2.726900     -0.046800      1.819300
  H      -0.836500     -2.274600      4.175000
  H      -1.313000     -0.581400      3.778600
  H      -2.385100     -1.974700      3.301000
  H       2.873700     -0.438800     -1.601300
  H       4.373100      1.402700     -0.924300
  H       3.545900      0.559000      3.213200
  H       2.045800     -1.283100      2.539500
  H       0.888500     -0.521700     -4.427300
  H      -0.891800     -0.456700     -4.148400
  H       0.172300      0.928800     -3.631100
  H      -1.891900      0.783600     -2.294700
35
Coordinates from ORCA-job file E -1663.444220702957
  C      -3.951267      1.895399     -1.395451
  O      -3.560502      1.216464     -0.223168
  C      -2.458087      0.427748     -0.238938
  C      -2.118914     -0.218110      0.948067
  C      -0.990975     -1.040351      0.989795
  O      -0.624455     -1.677935      2.126998
  C      -1.381212     -1.500018      3.303288
  C      -0.194239     -1.216088     -0.151047
  S       1.268419     -2.256698     -0.085951
  C       2.407033     -0.968463      0.431249
  C       3.083358     -0.203597     -0.524468
  C       3.955429      0.808320     -0.122790
  C       4.153078      1.048527      1.236765
  Cl      5.241691      2.314413      1.741162
  C       3.491661      0.283578      2.197167
  C       2.620139     -0.727231      1.792356
  C      -0.552270     -0.565761     -1.340260
  O       0.230174     -0.753553     -2.430028
  C      -0.074777     -0.085646     -3.633626
  C      -1.680189      0.259972     -1.387424
  H      -3.162894      2.591545     -1.725505
  H      -4.181341      1.181500     -2.203176
  H      -4.854481      2.467268     -1.156520
  H      -2.742428     -0.069010      1.829587
  H      -0.902073     -2.092556      4.090527
  H      -1.390646     -0.440253      3.605632
  H      -2.413721     -1.858545      3.162190
  H       2.924392     -0.391004     -1.586539
  H       4.478793      1.407149     -0.868754
  H       3.654039      0.473165      3.258595
  H       2.099474     -1.323841      2.541691
  H       0.686135     -0.374367     -4.367045
  H      -1.066492     -0.387413     -4.007651
  H      -0.042747      1.007224     -3.494029
  H      -1.950006      0.768267     -2.312902
35
Coordinates from ORCA-job file E -1663.445646464662
  C      -3.986642      1.865668     -1.403508
  O      -3.600198      1.190368     -0.228383
  C      -2.495993      0.423844     -0.251924
  C      -2.167835     -0.216776      0.945496
  C      -1.027756     -1.022415      1.003285
  O      -0.650522     -1.650797      2.128496
  C      -1.438031     -1.500914      3.287105
  C      -0.211454     -1.192966     -0.130012
  S       1.249287     -2.218310     -0.047664
  C       2.425352     -0.955266      0.443438
  C       3.083002     -0.194427     -0.527659
  C       3.982891      0.800619     -0.149332
  C       4.221429      1.025764      1.204983
  Cl      5.340460      2.270794      1.681234
  C       3.580986      0.267982      2.183851
  C       2.681929     -0.725167      1.798368
  C      -0.559387     -0.541062     -1.324451
  O       0.255081     -0.720613     -2.377317
  C      -0.039037     -0.066006     -3.590382
  C      -1.701026      0.270496     -1.393035
  H      -3.207520      2.571056     -1.731092
  H      -4.204536      1.156216     -2.216296
  H      -4.895807      2.423720     -1.159251
  H      -2.808351     -0.069864      1.811908
  H      -0.942994     -2.076008      4.076001
  H      -1.498889     -0.445171      3.591983
  H      -2.452478     -1.898573      3.132133
  H       2.882293     -0.372942     -1.585266
  H       4.495138      1.398456     -0.904647
  H       3.781526      0.452073      3.240276
  H       2.167739     -1.316875      2.557455
  H       0.752640     -0.344000     -4.293045
  H      -1.009523     -0.392779     -3.993186
  H      -0.041094      1.027132     -3.462327
  H      -1.960581      0.776844     -2.317436
35
Coordinates from ORCA-job file E -1663.445796048381
  C      -4.121012      1.792336     -1.407775
  O      -3.625580      1.184507     -0.234789
  C      -2.504053      0.448169     -0.310164
  C      -2.081347     -0.126880      0.894608
  C      -0.920421     -0.903678      0.914007
  O      -0.440853     -1.466074      2.034198
  C      -1.140152     -1.271674      3.243378
  C      -0.178710     -1.115891     -0.268270
  S       1.287130     -2.123198     -0.242110
  C       2.447342     -0.943461      0.447669
  C       3.167465     -0.091851     -0.395502
  C       4.061730      0.834486      0.138243
  C       4.230181      0.896217      1.520290
  Cl      5.341640      2.053866      2.191961
  C       3.528731      0.047416      2.374593
  C       2.635503     -0.874355      1.831172
  C      -0.618331     -0.520602     -1.465769
  O       0.134643     -0.733801     -2.556357
  C      -0.259932     -0.161335     -3.784123
  C      -1.785342      0.260234     -1.496115
  H      -3.391572      2.500141     -1.830385
  H      -4.379431      1.040576     -2.168882
  H      -5.024029      2.337316     -1.114526
  H      -2.671418      0.052510      1.789273
  H      -0.569847     -1.799457      4.014903
  H      -1.200962     -0.203998      3.502615
  H      -2.155998     -1.691807      3.189884
  H       3.018072     -0.148732     -1.474894
  H       4.625481      1.503162     -0.513477
  H       3.678275      0.108897      3.453201
  H       2.069749     -1.537572      2.487673
  H       0.500404     -0.454074     -4.515595
  H      -1.239913     -0.543973     -4.106875
  H      -0.298765      0.936582     -3.720208
  H      -2.118579      0.716100     -2.422052
35
Coordinates from ORCA-job file E -1663.446231388393
  C      -4.138812      1.772891     -1.464418
  O      -3.680766      1.154279     -0.280313
  C      -2.542025      0.437332     -0.319041
  C      -2.161303     -0.141124      0.900060
  C      -0.995203     -0.905983      0.962196
  O      -0.555247     -1.479221      2.095466
  C      -1.295434     -1.294091      3.283445
  C      -0.204595     -1.104459     -0.194225
  S       1.247865     -2.121570     -0.126307
  C       2.447444     -0.935871      0.477904
  C       3.063709     -0.049397     -0.410695
  C       4.002904      0.871185      0.050799
  C       4.321723      0.888636      1.407742
  Cl      5.493249      2.035713      1.991044
  C       3.726240      0.005654      2.306891
  C       2.787130     -0.909651      1.833898
  C      -0.600537     -0.498956     -1.403812
  O       0.200448     -0.693464     -2.465865
  C      -0.147507     -0.114909     -3.706392
  C      -1.775016      0.268789     -1.476084
  H      -3.405997      2.501245     -1.844796
  H      -4.347634      1.029084     -2.248784
  H      -5.064560      2.295097     -1.200628
  H      -2.794310      0.027825      1.767495
  H      -0.756816     -1.837786      4.067293
  H      -1.356626     -0.229120      3.554640
  H      -2.313466     -1.702094      3.188074
  H       2.798198     -0.078993     -1.468636
  H       4.489203      1.565860     -0.634611
  H       3.995468      0.036378      3.362993
  H       2.304045     -1.603365      2.523205
  H       0.646715     -0.396072     -4.406407
  H      -1.110488     -0.502589     -4.073013
  H      -0.200147      0.982318     -3.636656
  H      -2.077749      0.726527     -2.412663
35
Coordinates from ORCA-job file E -1663.446265721310
  C      -4.091421      1.775424     -1.516515
  O      -3.694985      1.143557     -0.317619
  C      -2.555151      0.423457     -0.307785
  C      -2.222187     -0.162909      0.920167
  C      -1.060120     -0.926979      1.022454
  O      -0.669882     -1.508246      2.171021
  C      -1.481382     -1.358810      3.316209
  C      -0.226320     -1.118814     -0.102189
  S       1.210949     -2.153588      0.016712
  C       2.432943     -0.940236      0.505894
  C       2.927960     -0.031086     -0.434394
  C       3.894793      0.902714     -0.069397
  C       4.368126      0.908494      1.241836
  Cl      5.587078      2.065359      1.698850
  C       3.887832      0.009259      2.192478
  C       2.912229     -0.914550      1.818430
  C      -0.572201     -0.502454     -1.319579
  O       0.272506     -0.673262     -2.354128
  C      -0.017252     -0.058042     -3.591567
  C      -1.739916      0.268627     -1.431018
  H      -3.335747      2.503224     -1.851657
  H      -4.261563      1.037847     -2.316527
  H      -5.027533      2.299736     -1.298081
  H      -2.889093      0.003004      1.763531
  H      -0.977660     -1.897425      4.125907
  H      -1.586511     -0.297959      3.592458
  H      -2.480624     -1.792290      3.154223
  H       2.546330     -0.055354     -1.456345
  H       4.285228      1.617072     -0.794711
  H       4.273751      0.034113      3.211956
  H       2.521514     -1.624928      2.548943
  H       0.802788     -0.324571     -4.266862
  H      -0.967631     -0.426764     -4.007750
  H      -0.064302      1.037404     -3.490507
  H      -2.002445      0.739074     -2.374638
35
Coordinates from ORCA-job file E -1663.447036497533
  C      -4.152782      1.713631     -1.574586
  O      -3.714923      1.139189     -0.361478
  C      -2.562121      0.439569     -0.353500
  C      -2.186441     -0.091964      0.886890
  C      -1.014111     -0.839252      0.984949
  O      -0.586351     -1.373110      2.142382
  C      -1.373743     -1.194789      3.300171
  C      -0.208927     -1.065543     -0.154303
  S       1.223800     -2.105467     -0.040017
  C       2.441035     -0.931704      0.545772
  C       2.819246      0.145054     -0.263378
  C       3.793956      1.041039      0.167771
  C       4.396513      0.838257      1.408718
  Cl      5.632409      1.944446      1.941919
  C       4.031936     -0.227165      2.229598
  C       3.044186     -1.110243      1.793307
  C      -0.595529     -0.499434     -1.382820
  O       0.218916     -0.702805     -2.435874
  C      -0.115892     -0.141264     -3.687292
  C      -1.775701      0.252910     -1.491400
  H      -3.418290      2.438623     -1.959229
  H      -4.329126      0.939805     -2.338311
  H      -5.092338      2.230740     -1.354439
  H      -2.833733      0.101354      1.739745
  H      -0.844794     -1.697548      4.116564
  H      -1.488324     -0.126064      3.540429
  H      -2.370091     -1.646765      3.175288
  H       2.340307      0.278486     -1.234858
  H       4.094829      1.885138     -0.453291
  H       4.516001     -0.360423      3.197407
  H       2.742985     -1.950546      2.421107
  H       0.685419     -0.427134     -4.376715
  H      -1.075243     -0.534869     -4.057404
  H      -0.171646      0.956864     -3.628136
  H      -2.071333      0.681083     -2.445184
35
Coordinates from ORCA-job file E -1663.447408670156
  C      -4.211704      1.650136     -1.637780
  O      -3.751459      1.121806     -0.412469
  C      -2.582712      0.451328     -0.394253
  C      -2.187672     -0.035509      0.858753
  C      -1.004674     -0.763979      0.967122
  O      -0.555890     -1.259011      2.132047
  C      -1.331323     -1.057127      3.294042
  C      -0.206244     -1.012827     -0.172805
  S       1.219880     -2.056074     -0.043612
  C       2.442445     -0.918540      0.593864
  C       2.700102      0.285511     -0.072468
  C       3.696441      1.142396      0.385247
  C       4.448515      0.770300      1.500023
  Cl      5.721421      1.824717      2.053096
  C       4.204984     -0.421696      2.177579
  C       3.189988     -1.263336      1.721599
  C      -0.608795     -0.485121     -1.411679
  O       0.202002     -0.708552     -2.462648
  C      -0.151616     -0.197647     -3.730211
  C      -1.801778      0.245614     -1.533212
  H      -3.499583      2.382917     -2.047940
  H      -4.372841      0.851548     -2.378839
  H      -5.163136      2.147722     -1.424752
  H      -2.833423      0.174702      1.708274
  H      -0.792641     -1.541750      4.114611
  H      -1.446635      0.015618      3.512573
  H      -2.327923     -1.513227      3.188393
  H       2.113418      0.542778     -0.957492
  H       3.906002      2.084262     -0.122599
  H       4.799976     -0.681699      3.053508
  H       2.978987     -2.200381      2.240551
  H       0.653057     -0.489472     -4.412814
  H      -1.103538     -0.624138     -4.081699
  H      -0.231526      0.900069     -3.707665
  H      -2.112004      0.638765     -2.496543
35
Coordinates from ORCA-job file E -1663.447519166208
  C      -4.193668      1.675650     -1.628023
  O      -3.741914      1.129399     -0.407884
  C      -2.580938      0.448022     -0.390938
  C      -2.194346     -0.048352      0.860962
  C      -1.016925     -0.787316      0.969292
  O      -0.572178     -1.288750      2.132222
  C      -1.336674     -1.074777      3.299200
  C      -0.215905     -1.034971     -0.168808
  S       1.216177     -2.069693     -0.031791
  C       2.435080     -0.918595      0.584320
  C       2.689990      0.280257     -0.093230
  C       3.682963      1.144214      0.359036
  C       4.431877      0.789000      1.482482
  Cl      5.694049      1.856889      2.035940
  C       4.192780     -0.399317      2.166968
  C       3.185084     -1.251548      1.714120
  C      -0.610913     -0.502367     -1.407341
  O       0.206166     -0.727279     -2.451675
  C      -0.130345     -0.204024     -3.718539
  C      -1.797876      0.238470     -1.529791
  H      -3.476126      2.409756     -2.025641
  H      -4.359392      0.888959     -2.380297
  H      -5.142702      2.176647     -1.411766
  H      -2.839370      0.162357      1.710513
  H      -0.806549     -1.580066      4.112894
  H      -1.422674     -0.001750      3.527390
  H      -2.345019     -1.504347      3.195637
  H       2.107841      0.526140     -0.984537
  H       3.891623      2.080235     -0.159984
  H       4.782408     -0.648013      3.049815
  H       2.971558     -2.178860      2.249087
  H       0.677776     -0.499661     -4.395393
  H      -1.082607     -0.618802     -4.082625
  H      -0.198677      0.894103     -3.689658
  H      -2.100477      0.638489     -2.492158
35
Coordinates from ORCA-job file E -1663.447627686586
  C      -4.148697      1.711871     -1.633131
  O      -3.716265      1.154256     -0.411151
  C      -2.568373      0.450141     -0.385759
  C      -2.193782     -0.049319      0.868305
  C      -1.025384     -0.801148      0.983762
  O      -0.597272     -1.308429      2.151421
  C      -1.379148     -1.104003      3.308621
  C      -0.220700     -1.057670     -0.149542
  S       1.209581     -2.094651      0.003806
  C       2.426866     -0.925381      0.584598
  C       2.636069      0.286689     -0.084647
  C       3.626387      1.164583      0.346958
  C       4.414591      0.816003      1.445431
  Cl      5.666805      1.906057      1.979097
  C       4.219443     -0.385179      2.121626
  C       3.216678     -1.254086      1.689051
  C      -0.605988     -0.526618     -1.392493
  O       0.211949     -0.760846     -2.434838
  C      -0.108474     -0.221745     -3.699453
  C      -1.782647      0.228381     -1.520338
  H      -3.412831      2.432118     -2.023670
  H      -4.326442      0.930028     -2.387986
  H      -5.089103      2.232420     -1.423824
  H      -2.837696      0.170237      1.717163
  H      -0.858306     -1.610376      4.128075
  H      -1.472719     -0.031516      3.539976
  H      -2.383617     -1.538642      3.189506
  H       2.021999      0.533714     -0.952317
  H       3.800738      2.108602     -0.169987
  H       4.840546     -0.634112      2.982367
  H       3.037526     -2.188355      2.223559
  H       0.694877     -0.529301     -4.377107
  H      -1.068484     -0.613945     -4.069304
  H      -0.153003      0.877725     -3.662836
  H      -2.075025      0.632597     -2.485140
35
Coordinates from ORCA-job file E -1663.447575458161
  C      -4.172341      1.691778     -1.640206
  O      -3.741097      1.136503     -0.416786
  C      -2.584210      0.449079     -0.385460
  C      -2.215595     -0.051140      0.870600
  C      -1.041335     -0.792819      0.993172
  O      -0.617108     -1.302399      2.160391
  C      -1.409193     -1.111714      3.313057
  C      -0.225170     -1.038254     -0.135195
  S       1.202970     -2.074396      0.023903
  C       2.431830     -0.911151      0.588371
  C       2.664830      0.286974     -0.098089
  C       3.671095      1.151684      0.322256
  C       4.455140      0.801463      1.423069
  Cl      5.730666      1.872335      1.938244
  C       4.237240     -0.386116      2.115653
  C       3.216629     -1.240176      1.696122
  C      -0.603807     -0.504226     -1.379167
  O       0.225524     -0.730236     -2.413366
  C      -0.094988     -0.202589     -3.682938
  C      -1.787204      0.239114     -1.514758
  H      -3.445501      2.425132     -2.022721
  H      -4.332520      0.910794     -2.399783
  H      -5.122298      2.196255     -1.435245
  H      -2.869380      0.158112      1.714202
  H      -0.890489     -1.621683      4.131560
  H      -1.511353     -0.042124      3.552854
  H      -2.410058     -1.551539      3.183377
  H       2.058520      0.532411     -0.972404
  H       3.863709      2.085013     -0.207714
  H       4.854614     -0.636425      2.978840
  H       3.021975     -2.164750      2.242324
  H       0.720587     -0.497052     -4.351651
  H      -1.043231     -0.615455     -4.060096
  H      -0.162093      0.895749     -3.651719
  H      -2.076258      0.641949     -2.480895
35
Coordinates from ORCA-job file E -1663.447628446657
  C      -4.189845      1.670469     -1.652378
  O      -3.751720      1.128323     -0.425473
  C      -2.589864      0.448811     -0.392555
  C      -2.215826     -0.042184      0.865515
  C      -1.038175     -0.777772      0.989569
  O      -0.607630     -1.276407      2.159162
  C      -1.396479     -1.078471      3.312766
  C      -0.224186     -1.026955     -0.139660
  S       1.201490     -2.065416      0.018242
  C       2.434784     -0.912205      0.592925
  C       2.653443      0.304605     -0.064402
  C       3.662470      1.161965      0.364282
  C       4.465340      0.784225      1.441814
  Cl      5.744103      1.846538      1.965828
  C       4.261573     -0.421938      2.106357
  C       3.236904     -1.267520      1.679984
  C      -0.606903     -0.499106     -1.384963
  O       0.223148     -0.723957     -2.419181
  C      -0.100766     -0.202866     -3.690733
  C      -1.793762      0.238402     -1.521865
  H      -3.468569      2.404569     -2.043701
  H      -4.346859      0.881619     -2.404541
  H      -5.142392      2.170617     -1.449155
  H      -2.868876      0.168787      1.709204
  H      -0.873483     -1.579703      4.133818
  H      -1.501422     -0.007289      3.543656
  H      -2.396469     -1.522401      3.189773
  H       2.032902      0.572041     -0.922649
  H       3.841975      2.111378     -0.141214
  H       4.892123     -0.692577      2.953844
  H       3.054619     -2.208235      2.202688
  H       0.716020     -0.495647     -4.358616
  H      -1.047225     -0.621701     -4.065679
  H      -0.173549      0.895138     -3.663572
  H      -2.086794      0.634964     -2.489291
35
Coordinates from ORCA-job file E -1663.447675905498
  C      -4.181918      1.676523     -1.654814
  O      -3.746097      1.133776     -0.427388
  C      -2.586508      0.450156     -0.393582
  C      -2.213099     -0.039997      0.864811
  C      -1.037082     -0.778130      0.989422
  O      -0.607510     -1.275832      2.159884
  C      -1.395667     -1.074672      3.313346
  C      -0.224505     -1.031112     -0.139666
  S       1.201094     -2.069585      0.019900
  C       2.432706     -0.914329      0.593593
  C       2.636898      0.311175     -0.051627
  C       3.643366      1.171225      0.378198
  C       4.458258      0.787779      1.444451
  Cl      5.732421      1.854569      1.970754
  C       4.269551     -0.427884      2.096304
  C       3.248000     -1.276552      1.668812
  C      -0.606604     -0.504448     -1.385583
  O       0.221713     -0.733342     -2.420335
  C      -0.101651     -0.212676     -3.692141
  C      -1.791502      0.235895     -1.522863
  H      -3.458057      2.408063     -2.046202
  H      -4.340950      0.887527     -2.406427
  H      -5.133087      2.179790     -1.452785
  H      -2.864597      0.173601      1.709066
  H      -0.873726     -1.575784      4.135133
  H      -1.498236     -0.002882      3.542634
  H      -2.396553     -1.516755      3.191089
  H       2.007671      0.584151     -0.901655
  H       3.809933      2.128307     -0.117215
  H       4.908384     -0.703189      2.936051
  H       3.078676     -2.225139      2.181573
  H       0.713052     -0.509369     -4.360844
  H      -1.050290     -0.628261     -4.065218
  H      -0.169995      0.885676     -3.666126
  H      -2.083987      0.631826     -2.490750
35
Coordinates from ORCA-job file E -1663.447844151981
  C      -4.151802      1.697092     -1.676102
  O      -3.726607      1.156253     -0.444198
  C      -2.576109      0.457273     -0.402712
  C      -2.208349     -0.025523      0.859687
  C      -1.039331     -0.773593      0.991754
  O      -0.614823     -1.262944      2.167651
  C      -1.402413     -1.046985      3.318738
  C      -0.229452     -1.045023     -0.134261
  S       1.195095     -2.081832      0.038986
  C       2.422192     -0.919698      0.603942
  C       2.546329      0.352761      0.035987
  C       3.548085      1.219198      0.466103
  C       4.438804      0.796867      1.453314
  Cl      5.702295      1.875271      1.982428
  C       4.333061     -0.468918      2.024443
  C       3.318000     -1.325167      1.598005
  C      -0.606707     -0.527938     -1.385505
  O       0.219185     -0.774356     -2.417851
  C      -0.098230     -0.260529     -3.693790
  C      -1.783363      0.223381     -1.529685
  H      -3.418121      2.418168     -2.068798
  H      -4.317039      0.905535     -2.423712
  H      -5.098312      2.211992     -1.481444
  H      -2.855301      0.201773      1.703932
  H      -0.885035     -1.545223      4.145146
  H      -1.497064      0.027519      3.539155
  H      -2.406204     -1.482993      3.199046
  H       1.862055      0.660635     -0.757188
  H       3.646767      2.215097      0.032575
  H       5.027412     -0.776605      2.806890
  H       3.218845     -2.314596      2.048407
  H       0.712015     -0.572633     -4.360900
  H      -1.052531     -0.667143     -4.062431
  H      -0.152367      0.838885     -3.676544
  H      -2.070878      0.614098     -2.501270
35
Coordinates from ORCA-job file E -1663.447952456251
  C      -4.083998      1.745235     -1.711330
  O      -3.680854      1.203948     -0.472368
  C      -2.551934      0.470286     -0.418255
  C      -2.195066     -0.001299      0.850471
  C      -1.041751     -0.771729      0.994859
  O      -0.626067     -1.246342      2.180161
  C      -1.409369     -1.000518      3.328015
  C      -0.239908     -1.079592     -0.126004
  S       1.185459     -2.109672      0.070775
  C       2.398366     -0.929128      0.619869
  C       2.382775      0.406239      0.210399
  C       3.371977      1.287250      0.644337
  C       4.390918      0.819315      1.472311
  Cl      5.629133      1.920702      2.014743
  C       4.430704     -0.514159      1.875347
  C       3.432514     -1.386977      1.445802
  C      -0.608921     -0.579669     -1.386435
  O       0.210542     -0.859463     -2.414761
  C      -0.094709     -0.355199     -3.697184
  C      -1.766835      0.196671     -1.541717
  H      -3.328718      2.443078     -2.105453
  H      -4.265552      0.951347     -2.452712
  H      -5.018401      2.286310     -1.529215
  H      -2.830104      0.253635      1.695999
  H      -0.899504     -1.493337      4.162343
  H      -1.486730      0.079048      3.531136
  H      -2.419435     -1.423471      3.215678
  H       1.606568      0.759583     -0.470178
  H       3.348301      2.335794      0.343904
  H       5.218014     -0.862595      2.544410
  H       3.461072     -2.432716      1.758529
  H       0.705010     -0.697711     -4.362083
  H      -1.061005     -0.740334     -4.057910
  H      -0.117957      0.745635     -3.694348
  H      -2.044435      0.579937     -2.519337
35
Coordinates from ORCA-job file E -1663.447813007128
  C      -4.175064      1.679243     -1.689577
  O      -3.750929      1.142947     -0.455037
  C      -2.596515      0.453834     -0.408093
  C      -2.234416     -0.024650      0.859212
  C      -1.061152     -0.764298      1.001189
  O      -0.640417     -1.249300      2.178643
  C      -1.439267     -1.037154      3.323195
  C      -0.240884     -1.031528     -0.121058
  S       1.193000     -2.052761      0.051091
  C       2.437035     -0.903884      0.607210
  C       2.559098      0.379986      0.059376
  C       3.575913      1.230404      0.483447
  C       4.482939      0.782926      1.443777
  Cl      5.767128      1.840934      1.962927
  C       4.380594     -0.492169      1.993452
  C       3.349714     -1.332234      1.574029
  C      -0.614436     -0.519614     -1.375656
  O       0.223818     -0.764567     -2.397225
  C      -0.082788     -0.259834     -3.679667
  C      -1.795400      0.223439     -1.530338
  H      -3.446674      2.406684     -2.080009
  H      -4.331006      0.886908     -2.438263
  H      -5.126228      2.185719     -1.496551
  H      -2.891157      0.200995      1.696014
  H      -0.923465     -1.530405      4.153438
  H      -1.544433      0.036356      3.541917
  H      -2.439035     -1.480774      3.196668
  H       1.859724      0.706223     -0.713472
  H       3.677064      2.232299      0.065359
  H       5.090838     -0.818968      2.753217
  H       3.251483     -2.329378      2.008174
  H       0.737826     -0.570904     -4.334327
  H      -1.029262     -0.675381     -4.057989
  H      -0.145155      0.838897     -3.670813
  H      -2.078390      0.610110     -2.504461
35
Coordinates from ORCA-job file E -1663.447912388890
  C      -4.136455      1.710436     -1.691675
  O      -3.721157      1.168011     -0.457002
  C      -2.575976      0.461559     -0.407740
  C      -2.219205     -0.020815      0.858236
  C      -1.054452     -0.773934      1.000058
  O      -0.639312     -1.262838      2.179102
  C      -1.433522     -1.043922      3.325328
  C      -0.237878     -1.050744     -0.120034
  S       1.190013     -2.079060      0.063764
  C       2.420925     -0.913256      0.610984
  C       2.504465      0.381078      0.086514
  C       3.512780      1.245552      0.505990
  C       4.448615      0.802287      1.440275
  Cl      5.717159      1.879949      1.958797
  C       4.382794     -0.484561      1.968525
  C       3.363940     -1.340208      1.551874
  C      -0.607436     -0.539489     -1.376406
  O       0.221723     -0.796784     -2.402716
  C      -0.086676     -0.287941     -3.682855
  C      -1.779191      0.217453     -1.530145
  H      -3.396688      2.427236     -2.080762
  H      -4.302594      0.919752     -2.439873
  H      -5.080972      2.230696     -1.501708
  H      -2.870185      0.211126      1.698040
  H      -0.922511     -1.543790      4.154697
  H      -1.526095      0.030758      3.545291
  H      -2.437875     -1.476860      3.199615
  H       1.785424      0.709771     -0.666044
  H       3.575919      2.259685      0.109711
  H       5.111251     -0.809465      2.712066
  H       3.303385     -2.349500      1.963496
  H       0.723854     -0.609943     -4.344870
  H      -1.042372     -0.689669     -4.053221
  H      -0.132693      0.811939     -3.672532
  H      -2.058899      0.605590     -2.504981
35
Coordinates from ORCA-job file E -1663.447892458011
  C      -4.155681      1.692757     -1.690882
  O      -3.735720      1.154619     -0.455801
  C      -2.584682      0.458239     -0.406776
  C      -2.225576     -0.022935      0.859369
  C      -1.056368     -0.768735      1.001294
  O      -0.639726     -1.257853      2.179500
  C      -1.436609     -1.043873      3.324883
  C      -0.237000     -1.039053     -0.118943
  S       1.190281     -2.068766      0.059606
  C       2.426948     -0.910390      0.610168
  C       2.533110      0.375007      0.066585
  C       3.546189      1.233499      0.485707
  C       4.465204      0.792148      1.437719
  Cl      5.743052      1.860607      1.952534
  C       4.377439     -0.485615      1.984432
  C       3.351409     -1.333944      1.569716
  C      -0.607652     -0.526047     -1.374356
  O       0.225802     -0.774905     -2.399329
  C      -0.084300     -0.267985     -3.679893
  C      -1.784452      0.223183     -1.528473
  H      -3.422034      2.415354     -2.080717
  H      -4.315369      0.900301     -2.438650
  H      -5.104213      2.205380     -1.500368
  H      -2.880774      0.203911      1.697252
  H      -0.923575     -1.541349      4.154425
  H      -1.535598      0.030094      3.545322
  H      -2.438540     -1.482073      3.197693
  H       1.824459      0.700419     -0.697590
  H       3.631094      2.238936      0.072049
  H       5.095491     -0.808918      2.738552
  H       3.267970     -2.333835      1.999856
  H       0.731417     -0.581554     -4.339570
  H      -1.034708     -0.679116     -4.053497
  H      -0.141665      0.831263     -3.669145
  H      -2.065526      0.611330     -2.502870
35
Coordinates from ORCA-job file E -1663.447890574147
  C      -4.157060      1.691123     -1.690900
  O      -3.737184      1.153326     -0.455622
  C      -2.585880      0.457431     -0.406416
  C      -2.226815     -0.023570      0.859791
  C      -1.057258     -0.768786      1.001947
  O      -0.640637     -1.257462      2.180328
  C      -1.437915     -1.043323      3.325395
  C      -0.237653     -1.038925     -0.118152
  S       1.189629     -2.068654      0.060073
  C       2.427049     -0.910519      0.609390
  C       2.534545      0.374110      0.064452
  C       3.548088      1.232315      0.483194
  C       4.466430      0.791244      1.435927
  Cl      5.744752      1.859319      1.950337
  C       4.377482     -0.485920      1.983914
  C       3.350962     -1.333818      1.569680
  C      -0.607863     -0.525422     -1.373482
  O       0.226742     -0.773066     -2.397823
  C      -0.081898     -0.265391     -3.678437
  C      -1.784929      0.223409     -1.527839
  H      -3.423790      2.414179     -2.080563
  H      -4.315894      0.898481     -2.438663
  H      -5.106017      2.203095     -1.500765
  H      -2.882447      0.202917      1.697452
  H      -0.924326     -1.539344      4.155461
  H      -1.538259      0.030753      3.544728
  H      -2.439323     -1.482835      3.198562
  H       1.826508      0.699419     -0.700375
  H       3.634238      2.237107      0.068174
  H       5.094991     -0.809020      2.738641
  H       3.266036     -2.332956      2.001382
  H       0.734642     -0.578566     -4.337297
  H      -1.031880     -0.676280     -4.053392
  H      -0.139268      0.833822     -3.667148
  H      -2.065699      0.611907     -2.502152
35
Coordinates from ORCA-job file E -1663.447890011786
  C      -4.157284      1.690692     -1.690993
  O      -3.737373      1.153264     -0.455559
  C      -2.585862      0.457705     -0.406182
  C      -2.227051     -0.023605      0.859960
  C      -1.057453     -0.768776      1.002182
  O      -0.641199     -1.257881      2.180536
  C      -1.438529     -1.043568      3.325527
  C      -0.237615     -1.038618     -0.117766
  S       1.189471     -2.068687      0.060321
  C       2.427256     -0.910648      0.609032
  C       2.535093      0.373680      0.063616
  C       3.548731      1.231905      0.482219
  C       4.466753      0.791117      1.435343
  Cl      5.745119      1.859191      1.949639
  C       4.377459     -0.485824      1.983874
  C       3.350885     -1.333673      1.569794
  C      -0.607536     -0.524720     -1.373018
  O       0.227234     -0.772105     -2.397255
  C      -0.081648     -0.264908     -3.677980
  C      -1.784635      0.224015     -1.527487
  H      -3.424317      2.414069     -2.080623
  H      -4.315509      0.897839     -2.438661
  H      -5.106557      2.202183     -1.501154
  H      -2.883012      0.202509      1.697458
  H      -0.925142     -1.539706      4.155640
  H      -1.538692      0.030523      3.544831
  H      -2.440032     -1.482842      3.198584
  H       1.827289      0.698945     -0.701463
  H       3.635094      2.236518      0.066809
  H       5.094744     -0.808732      2.738901
  H       3.265575     -2.332593      2.001944
  H       0.735115     -0.577742     -4.336722
  H      -1.031398     -0.676404     -4.052845
  H      -0.139650      0.834280     -3.666921
  H      -2.065223      0.612694     -2.501782
