13
Coordinates from ORCA-job file E -286.631596860214
  C       1.536400     -0.253400      0.406100
  N       1.025700     -0.110500     -0.966700
  C       0.106300     -0.069000      0.198200
  C      -0.881800      1.041800      0.095000
  O      -1.929000      0.096400     -0.088600
  C      -1.030300     -1.003600     -0.000600
  H       2.072300      0.644500      0.784800
  H       1.840600     -1.295000      0.638300
  H       1.275600      0.857700     -1.277100
  H      -0.779200      1.701200     -0.794900
  H      -0.999800      1.589300      1.054700
  H      -1.002800     -1.581200     -0.951600
  H      -1.234100     -1.618200      0.902400
13
Coordinates from ORCA-job file E -286.643915112656
  C       1.564431     -0.246838      0.392020
  N       1.064689     -0.118533     -0.978675
  C       0.117312     -0.068343      0.167422
  C      -0.899110      1.059745      0.110210
  O      -1.953236      0.102816     -0.099268
  C      -1.049338     -1.019435      0.001262
  H       2.104578      0.612035      0.792350
  H       1.898023     -1.252397      0.645978
  H       1.292036      0.825269     -1.293349
  H      -0.788340      1.735577     -0.748102
  H      -1.049663      1.609895      1.050542
  H      -1.017197     -1.607068     -0.923332
  H      -1.284285     -1.632723      0.882941
13
Coordinates from ORCA-job file E -286.648488427188
  C       1.565133     -0.237444      0.386683
  N       1.087788     -0.132275     -0.993317
  C       0.121955     -0.073015      0.124509
  C      -0.899029      1.059291      0.120411
  O      -1.958373      0.108863     -0.114907
  C      -1.058956     -1.022620     -0.003183
  H       2.100525      0.611559      0.810188
  H       1.924805     -1.223799      0.670777
  H       1.295804      0.806645     -1.328800
  H      -0.785747      1.766857     -0.709892
  H      -1.055256      1.593015      1.067567
  H      -1.034020     -1.632518     -0.911138
  H      -1.304730     -1.624559      0.881103
13
Coordinates from ORCA-job file E -286.651223557723
  C       1.556942     -0.227515      0.389460
  N       1.110217     -0.145124     -1.006144
  C       0.124662     -0.077864      0.079840
  C      -0.894023      1.054708      0.125365
  O      -1.958914      0.114008     -0.129212
  C      -1.064354     -1.022270     -0.012650
  H       2.076773      0.625118      0.826168
  H       1.930837     -1.201547      0.698762
  H       1.305868      0.787180     -1.364948
  H      -0.791245      1.795831     -0.677397
  H      -1.035725      1.558414      1.091389
  H      -1.059395     -1.653925     -0.906252
  H      -1.301743     -1.607014      0.885619
13
Coordinates from ORCA-job file E -286.652996214022
  C       1.545753     -0.220137      0.395621
  N       1.135676     -0.153739     -1.016294
  C       0.126416     -0.080321      0.035248
  C      -0.890319      1.050451      0.125094
  O      -1.961267      0.117097     -0.133950
  C      -1.067612     -1.020734     -0.022213
  H       2.046740      0.639016      0.841201
  H       1.924925     -1.186033      0.723515
  H       1.328072      0.771414     -1.394373
  H      -0.808384      1.820260     -0.652970
  H      -1.006335      1.521794      1.110439
  H      -1.091976     -1.669579     -0.903214
  H      -1.281789     -1.589490      0.891896
13
Coordinates from ORCA-job file E -286.654020493582
  C       1.533057     -0.215313      0.403927
  N       1.161408     -0.158076     -1.022907
  C       0.127289     -0.081099     -0.005582
  C      -0.888447      1.047742      0.121035
  O      -1.967153      0.117405     -0.115846
  C      -1.069795     -1.019464     -0.030557
  H       2.015949      0.650119      0.857288
  H       1.911462     -1.177104      0.744290
  H       1.358522      0.761320     -1.411881
  H      -0.835642      1.832119     -0.644979
  H      -0.968779      1.500058      1.118612
  H      -1.129076     -1.673173     -0.906642
  H      -1.248896     -1.584533      0.893242
13
Coordinates from ORCA-job file E -286.654554656409
  C       1.521596     -0.212574      0.413110
  N       1.182106     -0.159765     -1.023835
  C       0.126684     -0.081421     -0.033925
  C      -0.887569      1.047347      0.116355
  O      -1.974282      0.114617     -0.068152
  C      -1.071370     -1.020057     -0.036704
  H       1.990853      0.656531      0.873578
  H       1.896626     -1.172737      0.761267
  H       1.386545      0.756734     -1.415691
  H      -0.867552      1.824641     -0.658593
  H      -0.927033      1.508589      1.111967
  H      -1.164322     -1.658581     -0.921426
  H      -1.212382     -1.603324      0.882048
13
Coordinates from ORCA-job file E -286.654887343524
  C       1.512279     -0.211269      0.421781
  N       1.197321     -0.160213     -1.020679
  C       0.124679     -0.081534     -0.051222
  C      -0.886973      1.048613      0.112751
  O      -1.977623      0.110006     -0.007749
  C      -1.072125     -1.022116     -0.040227
  H       1.972258      0.659456      0.888476
  H       1.883441     -1.171103      0.774863
  H       1.408148      0.755239     -1.411425
  H      -0.899642      1.804927     -0.683116
  H      -0.887564      1.537254      1.095746
  H      -1.195485     -1.632393     -0.941353
  H      -1.178813     -1.636867      0.862154
13
Coordinates from ORCA-job file E -286.655101353311
  C       1.505137     -0.210968      0.430112
  N       1.207912     -0.160323     -1.015244
  C       0.122676     -0.081093     -0.060769
  C      -0.886240      1.050282      0.110168
  O      -1.976014      0.104291      0.059463
  C      -1.071577     -1.024216     -0.042216
  H       1.959085      0.660327      0.901571
  H       1.871505     -1.171268      0.786818
  H       1.424122      0.755026     -1.403293
  H      -0.931356      1.776353     -0.712616
  H      -0.853018      1.575571      1.073256
  H      -1.222479     -1.597720     -0.963469
  H      -1.149853     -1.676262      0.836218
13
Coordinates from ORCA-job file E -286.655217055773
  C       1.497962     -0.210648      0.438365
  N       1.219152     -0.160958     -1.010059
  C       0.121190     -0.080304     -0.070853
  C      -0.885410      1.051574      0.107667
  O      -1.969759      0.098503      0.125213
  C      -1.070334     -1.025780     -0.043897
  H       1.945977      0.660933      0.914746
  H       1.859497     -1.171030      0.799659
  H       1.440592      0.753881     -1.396198
  H      -0.965923      1.747018     -0.738682
  H      -0.820194      1.612298      1.048752
  H      -1.251145     -1.561236     -0.982793
  H      -1.121705     -1.714252      0.808081
13
Coordinates from ORCA-job file E -286.655225813438
  C       1.494956     -0.211054      0.447015
  N       1.225550     -0.161514     -1.003645
  C       0.122813     -0.078941     -0.072595
  C      -0.885399      1.050750      0.105226
  O      -1.960662      0.091859      0.201058
  C      -1.068747     -1.024384     -0.046406
  H       1.940625      0.660351      0.926049
  H       1.849812     -1.172308      0.812612
  H       1.451168      0.753028     -1.388219
  H      -0.999064      1.707277     -0.768817
  H      -0.795859      1.651060      1.018756
  H      -1.273243     -1.515832     -1.005129
  H      -1.102050     -1.750291      0.774095
13
Coordinates from ORCA-job file E -286.655238938390
  C       1.490144     -0.209921      0.448910
  N       1.233227     -0.162574     -1.003843
  C       0.121470     -0.079020     -0.082864
  C      -0.884857      1.051502      0.104395
  O      -1.957866      0.091004      0.206822
  C      -1.068593     -1.025786     -0.046880
  H       1.931533      0.662141      0.930511
  H       1.845284     -1.170024      0.817202
  H       1.461682      0.750641     -1.389549
  H      -1.011432      1.708704     -0.766884
  H      -0.783345      1.653013      1.016272
  H      -1.287251     -1.513245     -1.004214
  H      -1.090095     -1.756434      0.770122
13
Coordinates from ORCA-job file E -286.655246839855
  C       1.492247     -0.210151      0.446981
  N       1.229601     -0.162264     -1.004695
  C       0.121607     -0.079114     -0.079028
  C      -0.885171      1.051456      0.105060
  O      -1.960974      0.092318      0.193034
  C      -1.068910     -1.025547     -0.046485
  H       1.935692      0.661729      0.927076
  H       1.848369     -1.170446      0.813869
  H       1.456746      0.751159     -1.390747
  H      -1.002098      1.714974     -0.762838
  H      -0.791285      1.645982      1.022260
  H      -1.278887     -1.521415     -1.001433
  H      -1.097038     -1.748679      0.776945
13
Coordinates from ORCA-job file E -286.655246389943
  C       1.492107     -0.210175      0.447279
  N       1.229788     -0.162306     -1.004474
  C       0.121650     -0.079017     -0.079137
  C      -0.885206      1.051466      0.104966
  O      -1.960557      0.092093      0.195482
  C      -1.068814     -1.025496     -0.046556
  H       1.935495      0.661721      0.927403
  H       1.847932     -1.170520      0.814333
  H       1.457217      0.751038     -1.390550
  H      -1.003310      1.713763     -0.763716
  H      -0.790516      1.647203      1.021276
  H      -1.279589     -1.519916     -1.002102
  H      -1.096299     -1.749855      0.775795
