13
Coordinates from ORCA-job file
  C   1.49210745861293     -0.21017531726472      0.44727856818315
  N   1.22978798808052     -0.16230610075861     -1.00447382753464
  C   0.12165024239075     -0.07901748885856     -0.07913667862449
  C   -0.88520590923858      1.05146643236388      0.10496574984273
  O   -1.96055671391432      0.09209323967471      0.19548186655041
  C   -1.06881358244029     -1.02549552269164     -0.04655572562466
  H   1.93549510197989      0.66172139378919      0.92740318689556
  H   1.84793245589352     -1.17051970172196      0.81433301061138
  H   1.45721652960583      0.75103808791054     -1.39055026377634
  H   -1.00330974302483      1.71376319789542     -0.76371555520621
  H   -0.79051582971343      1.64720255935903      1.02127596032566
  H   -1.27958863740509     -1.51991588339710     -1.00210174368294
  H   -1.09629936082691     -1.74985489630019      0.77579545204040
