21
Coordinates from ORCA-job file E -420.759000339442
  C      -2.053800      0.752600      0.126700
  C      -2.065700     -0.788700      0.042900
  O      -0.888300     -1.288400     -0.561500
  C       0.239600     -0.894500      0.200200
  C       1.522600     -1.317400     -0.507300
  N       2.478500     -0.219400     -0.393800
  C       1.670600      0.994500     -0.328300
  C       0.342900      0.630500      0.328900
  N      -0.777000      1.297300     -0.349800
  H      -2.237600      1.072200      1.177600
  H      -2.874100      1.165400     -0.499600
  H      -2.935300     -1.114200     -0.566500
  H      -2.201000     -1.232300      1.055700
  H       0.213000     -1.365600      1.210900
  H       1.936100     -2.248300     -0.059100
  H       1.329600     -1.509100     -1.586100
  H       2.975400     -0.322200      0.523200
  H       2.195400      1.787100      0.250200
  H       1.510300      1.369100     -1.363700
  H       0.368200      0.915700      1.406700
  H      -0.749300      2.315700     -0.107500
21
Coordinates from ORCA-job file E -420.765218314415
  C      -2.067837      0.761015      0.142595
  C      -2.075189     -0.787067      0.043264
  O      -0.889748     -1.283059     -0.548406
  C       0.237089     -0.892121      0.209665
  C       1.528929     -1.319735     -0.508780
  N       2.492759     -0.225775     -0.360327
  C       1.691533      1.002600     -0.322711
  C       0.343049      0.652181      0.342344
  N      -0.785906      1.284549     -0.337773
  H      -2.273133      1.062047      1.185755
  H      -2.862481      1.179951     -0.483308
  H      -2.900738     -1.132663     -0.583021
  H      -2.202414     -1.232928      1.043684
  H       0.178539     -1.356899      1.208243
  H       1.942935     -2.247288     -0.103925
  H       1.303173     -1.479196     -1.569379
  H       2.988561     -0.330232      0.516093
  H       2.232917      1.788706      0.212899
  H       1.503509      1.349093     -1.345975
  H       0.372064      0.927013      1.413185
  H      -0.757512      2.279809     -0.154322
21
Coordinates from ORCA-job file E -420.765977661854
  C      -2.062358      0.759038      0.164799
  C      -2.079522     -0.788731      0.034253
  O      -0.886068     -1.281662     -0.546505
  C       0.237884     -0.890221      0.216120
  C       1.531640     -1.313757     -0.504133
  N       2.496497     -0.227008     -0.325042
  C       1.693665      0.999538     -0.327745
  C       0.343706      0.658912      0.344223
  N      -0.789014      1.272171     -0.339955
  H      -2.243421      1.040355      1.217979
  H      -2.865241      1.196413     -0.437147
  H      -2.890844     -1.124426     -0.615583
  H      -2.220598     -1.250235      1.025225
  H       0.168572     -1.351614      1.215440
  H       1.940618     -2.256573     -0.131512
  H       1.299433     -1.434306     -1.568701
  H       2.977854     -0.329028      0.562986
  H       2.235170      1.807379      0.173776
  H       1.496703      1.303090     -1.363064
  H       0.374620      0.932576      1.415216
  H      -0.759196      2.278089     -0.210832
21
Coordinates from ORCA-job file E -420.766289753920
  C      -2.053351      0.754538      0.189739
  C      -2.084034     -0.790335      0.018771
  O      -0.880980     -1.282250     -0.544488
  C       0.238014     -0.887642      0.223953
  C       1.534144     -1.310519     -0.493106
  N       2.499967     -0.226554     -0.302354
  C       1.693452      0.996786     -0.336381
  C       0.344948      0.664390      0.341617
  N      -0.792644      1.263630     -0.343084
  H      -2.195021      1.010303      1.255970
  H      -2.872937      1.213656     -0.372711
  H      -2.879625     -1.101780     -0.662654
  H      -2.256417     -1.274705      0.993967
  H       0.163459     -1.343650      1.225698
  H       1.938435     -2.262726     -0.138599
  H       1.302192     -1.408587     -1.560575
  H       2.961105     -0.320659      0.597347
  H       2.230708      1.824495      0.137548
  H       1.493638      1.263897     -1.381647
  H       0.377865      0.943528      1.411667
  H      -0.762815      2.274185     -0.260878
21
Coordinates from ORCA-job file E -420.766465438544
  C      -2.043445      0.747201      0.220282
  C      -2.088901     -0.790088     -0.008166
  O      -0.874162     -1.279284     -0.549275
  C       0.235913     -0.882153      0.230325
  C       1.537883     -1.312826     -0.472109
  N       2.502540     -0.225026     -0.291543
  C       1.690636      0.993626     -0.357674
  C       0.347786      0.671209      0.333167
  N      -0.799258      1.264351     -0.339213
  H      -2.139655      0.965558      1.300078
  H      -2.882735      1.229909     -0.290840
  H      -2.862953     -1.064800     -0.729069
  H      -2.303718     -1.305805      0.942219
  H       0.150049     -1.329527      1.234908
  H       1.940207     -2.262656     -0.109081
  H       1.311491     -1.418858     -1.540079
  H       2.946761     -0.301551      0.618917
  H       2.223433      1.837866      0.091472
  H       1.488471      1.229348     -1.409984
  H       0.392533      0.957160      1.401269
  H      -0.772778      2.276345     -0.275806
21
Coordinates from ORCA-job file E -420.766648194019
  C      -2.034523      0.738024      0.249977
  C      -2.093312     -0.787556     -0.038825
  O      -0.866531     -1.274957     -0.555586
  C       0.233513     -0.875493      0.236501
  C       1.541982     -1.317110     -0.447725
  N       2.504454     -0.223358     -0.286448
  C       1.686185      0.989424     -0.384542
  C       0.351991      0.678286      0.324680
  N      -0.806209      1.271107     -0.327777
  H      -2.090069      0.913818      1.340466
  H      -2.891307      1.241675     -0.209096
  H      -2.842233     -1.019448     -0.800370
  H      -2.353711     -1.336317      0.881043
  H       0.134125     -1.313056      1.244032
  H       1.943674     -2.259053     -0.064090
  H       1.322912     -1.444865     -1.514804
  H       2.934019     -0.276490      0.632919
  H       2.215707      1.849769      0.037113
  H       1.478275      1.192679     -1.442371
  H       0.415340      0.969894      1.390507
  H      -0.784183      2.283026     -0.265803
21
Coordinates from ORCA-job file E -420.766852665383
  C      -2.027109      0.727251      0.277145
  C      -2.097274     -0.782670     -0.070972
  O      -0.858669     -1.271036     -0.560793
  C       0.231587     -0.868335      0.242773
  C       1.546122     -1.322591     -0.422047
  N       2.505676     -0.221965     -0.286977
  C       1.680258      0.984213     -0.414682
  C       0.357038      0.685012      0.316662
  N      -0.812944      1.282173     -0.310527
  H      -2.048418      0.858113      1.375102
  H      -2.898796      1.247728     -0.132271
  H      -2.817545     -0.967033     -0.872422
  H      -2.405302     -1.363474      0.813539
  H       0.119476     -1.294949      1.253532
  H       1.948235     -2.251614     -0.008801
  H       1.335390     -1.482475     -1.486277
  H       2.922922     -0.247236      0.639239
  H       2.207788      1.859406     -0.022129
  H       1.463421      1.155347     -1.476215
  H       0.443434      0.981374      1.379681
  H      -0.795192      2.292763     -0.233760
21
Coordinates from ORCA-job file E -420.767056365704
  C      -2.019342      0.715514      0.304525
  C      -2.099874     -0.775262     -0.105521
  O      -0.850505     -1.265245     -0.568675
  C       0.228844     -0.861226      0.249042
  C       1.550239     -1.328602     -0.393940
  N       2.505420     -0.219958     -0.289727
  C       1.672421      0.978348     -0.446049
  C       0.361479      0.691166      0.309286
  N      -0.820032      1.293344     -0.292099
  H      -2.008940      0.800767      1.407161
  H      -2.903739      1.250229     -0.056350
  H      -2.790129     -0.911120     -0.942485
  H      -2.453413     -1.385646      0.740999
  H       0.100909     -1.277732      1.261889
  H       1.954129     -2.241121      0.052767
  H       1.347275     -1.525455     -1.453285
  H       2.916823     -0.216468      0.639313
  H       2.198638      1.867266     -0.083760
  H       1.444322      1.117820     -1.509698
  H       0.472320      0.991595      1.368988
  H      -0.806747      2.301786     -0.192582
21
Coordinates from ORCA-job file E -420.767227123599
  C      -2.020309      0.706248      0.318355
  C      -2.101236     -0.763783     -0.139111
  O      -0.841604     -1.262383     -0.569809
  C       0.229957     -0.855936      0.258437
  C       1.555379     -1.337093     -0.367633
  N       2.502619     -0.219022     -0.309131
  C       1.661679      0.972359     -0.478487
  C       0.367642      0.694621      0.309406
  N      -0.824079      1.310487     -0.262451
  H      -2.009324      0.753931      1.423207
  H      -2.907949      1.248354     -0.023222
  H      -2.759780     -0.857703     -1.007056
  H      -2.496328     -1.395344      0.672326
  H       0.090236     -1.264023      1.272787
  H       1.967421     -2.221546      0.125085
  H       1.354974     -1.588002     -1.415522
  H       2.931367     -0.184764      0.610626
  H       2.193070      1.869818     -0.146281
  H       1.409809      1.088365     -1.539461
  H       0.509044      0.995225      1.365268
  H      -0.812488      2.310192     -0.097532
21
Coordinates from ORCA-job file E -420.767467728192
  C      -2.008739      0.693222      0.349121
  C      -2.100221     -0.753664     -0.175388
  O      -0.832828     -1.251323     -0.585391
  C       0.223724     -0.848641      0.264479
  C       1.558265     -1.340923     -0.335672
  N       2.500061     -0.215624     -0.306508
  C       1.651704      0.965053     -0.507161
  C       0.369830      0.701004      0.303267
  N      -0.831632      1.317688     -0.246894
  H      -1.961704      0.694812      1.454258
  H      -2.907575      1.247112      0.059736
  H      -2.729763     -0.801422     -1.068245
  H      -2.532750     -1.410772      0.595823
  H       0.058877     -1.249720      1.277578
  H       1.972251     -2.210329      0.181855
  H       1.363166     -1.620772     -1.377375
  H       2.932163     -0.157498      0.610789
  H       2.180264      1.876279     -0.209492
  H       1.387720      1.045506     -1.568494
  H       0.533325      1.004110      1.355295
  H      -0.826039      2.315903     -0.071780
21
Coordinates from ORCA-job file E -420.767636478060
  C      -2.004156      0.682535      0.371812
  C      -2.096367     -0.740609     -0.212273
  O      -0.821410     -1.236742     -0.603383
  C       0.218757     -0.841872      0.271330
  C       1.562847     -1.345623     -0.300749
  N       2.496787     -0.211925     -0.315848
  C       1.637595      0.955920     -0.538556
  C       0.375442      0.705777      0.305048
  N      -0.835335      1.332518     -0.212890
  H      -1.944562      0.639291      1.475267
  H      -2.908266      1.243982      0.114955
  H      -2.698051     -0.744571     -1.125550
  H      -2.559737     -1.422076      0.518959
  H       0.024221     -1.240250      1.279890
  H       1.982384     -2.191918      0.250018
  H       1.372134     -1.667646     -1.331177
  H       2.945222     -0.128325      0.591952
  H       2.163772      1.881039     -0.282075
  H       1.351191      0.999313     -1.596174
  H       0.572594      1.004954      1.352307
  H      -0.834962      2.326229     -0.013065
21
Coordinates from ORCA-job file E -420.767746459752
  C      -2.003358      0.674690      0.387932
  C      -2.090462     -0.726044     -0.247150
  O      -0.808665     -1.220297     -0.620791
  C       0.215505     -0.836572      0.279049
  C       1.567454     -1.350739     -0.267910
  N       2.491008     -0.209642     -0.336061
  C       1.621218      0.947743     -0.565684
  C       0.380924      0.708673      0.312294
  N      -0.837015      1.347347     -0.174609
  H      -1.945545      0.593081      1.489134
  H      -2.908735      1.241956      0.148523
  H      -2.667148     -0.693094     -1.176005
  H      -2.578241     -1.428146      0.447894
  H      -0.007797     -1.235943      1.281067
  H       1.996086     -2.165775      0.322011
  H       1.379834     -1.724613     -1.281223
  H       2.969872     -0.103169      0.553557
  H       2.147190      1.882662     -0.346957
  H       1.306736      0.962195     -1.616212
  H       0.611780      1.001387      1.354489
  H      -0.840543      2.334298      0.056453
21
Coordinates from ORCA-job file E -420.767754854577
  C      -2.000615      0.662842      0.403604
  C      -2.086165     -0.710079     -0.280733
  O      -0.798526     -1.209504     -0.631507
  C       0.213509     -0.830653      0.284874
  C       1.571082     -1.355532     -0.238542
  N       2.484948     -0.209665     -0.353938
  C       1.604646      0.937592     -0.596225
  C       0.385916      0.711149      0.313164
  N      -0.839509      1.361830     -0.139838
  H      -1.936199      0.539419      1.500497
  H      -2.911144      1.233301      0.192844
  H      -2.631205     -0.629931     -1.225917
  H      -2.607059     -1.430086      0.370116
  H      -0.027312     -1.225439      1.284487
  H       2.005234     -2.133498      0.395509
  H       1.392744     -1.783617     -1.231417
  H       2.976505     -0.073336      0.523994
  H       2.129588      1.880239     -0.410826
  H       1.268310      0.925312     -1.639892
  H       0.649034      1.001586      1.348366
  H      -0.843683      2.338070      0.131179
21
Coordinates from ORCA-job file E -420.767738816900
  C      -2.009160      0.670850      0.398073
  C      -2.079982     -0.707660     -0.286036
  O      -0.790914     -1.194682     -0.644899
  C       0.214051     -0.832686      0.286672
  C       1.574162     -1.358048     -0.231262
  N       2.479975     -0.209007     -0.375457
  C       1.596995      0.937420     -0.595732
  C       0.389826      0.708601      0.329521
  N      -0.834497      1.367220     -0.114916
  H      -1.980636      0.552634      1.496750
  H      -2.909067      1.245071      0.153903
  H      -2.635080     -0.641718     -1.226377
  H      -2.584269     -1.432352      0.373022
  H      -0.042074     -1.241300      1.276892
  H       2.017218     -2.119768      0.416994
  H       1.392261     -1.808815     -1.213607
  H       3.010147     -0.077560      0.480768
  H       2.124814      1.879639     -0.415741
  H       1.241813      0.930185     -1.633342
  H       0.664744      0.989494      1.364006
  H      -0.840228      2.342481      0.160569
21
Coordinates from ORCA-job file E -420.767780376555
  C      -2.005004      0.668162      0.398322
  C      -2.084241     -0.711842     -0.277798
  O      -0.796894     -1.204816     -0.635200
  C       0.214236     -0.832616      0.285127
  C       1.571302     -1.356434     -0.240456
  N       2.483400     -0.210068     -0.363453
  C       1.604474      0.940074     -0.590335
  C       0.386593      0.709905      0.320248
  N      -0.837330      1.361714     -0.135352
  H      -1.957373      0.554122      1.497013
  H      -2.910217      1.239615      0.168117
  H      -2.638909     -0.646533     -1.218396
  H      -2.592502     -1.430791      0.384355
  H      -0.029457     -1.234422      1.281284
  H       2.008829     -2.131625      0.395058
  H       1.389181     -1.788414     -1.231077
  H       2.992004     -0.081081      0.505978
  H       2.132337      1.879811     -0.398445
  H       1.263369      0.938442     -1.632595
  H       0.648576      0.997371      1.356410
  H      -0.842276      2.339425      0.130992
21
Coordinates from ORCA-job file E -420.767780494678
  C      -2.004681      0.668009      0.398747
  C      -2.084393     -0.711795     -0.277656
  O      -0.797149     -1.204642     -0.635902
  C       0.214039     -0.832557      0.284347
  C       1.571417     -1.356312     -0.240479
  N       2.483550     -0.209751     -0.361917
  C       1.604405      0.939732     -0.590866
  C       0.386678      0.709825      0.319764
  N      -0.837254      1.361774     -0.135278
  H      -1.956178      0.553409      1.497338
  H      -2.910135      1.239518      0.169605
  H      -2.639478     -0.645866     -1.217996
  H      -2.592431     -1.431010      0.384380
  H      -0.029765     -1.234242      1.280533
  H       2.008409     -2.131909      0.394890
  H       1.390204     -1.787619     -1.231577
  H       2.990285     -0.080290      0.508540
  H       2.131870      1.879815     -0.399456
  H       1.263901      0.937082     -1.633306
  H       0.648867      0.997137      1.355929
  H      -0.842062      2.339693      0.130160
