21
Coordinates from ORCA-job file
  C   -2.00468066237537      0.66800873266860      0.39874700272950
  C   -2.08439285154672     -0.71179541166154     -0.27765587737933
  O   -0.79714863188699     -1.20464194941520     -0.63590201981610
  C   0.21403924556512     -0.83255703603094      0.28434696719724
  C   1.57141680744175     -1.35631172582611     -0.24047911555334
  N   2.48355015441416     -0.20975091450438     -0.36191714987757
  C   1.60440498821836      0.93973156672235     -0.59086589031864
  C   0.38667818229111      0.70982467846310      0.31976396097575
  N   -0.83725365022354      1.36177362690280     -0.13527834536095
  H   -1.95617803488815      0.55340944803204      1.49733796997162
  H   -2.91013489510396      1.23951759827048      0.16960501515572
  H   -2.63947792708583     -0.64586649914762     -1.21799619255001
  H   -2.59243089080456     -1.43101041339015      0.38437958311371
  H   -0.02976496609508     -1.23424225803881      1.28053331585102
  H   2.00840860988337     -2.13190891449052      0.39488989160340
  H   1.39020384138618     -1.78761905620406     -1.23157665218149
  H   2.99028501248381     -0.08028950936709      0.50853975229560
  H   2.13186969937845      1.87981515740150     -0.39945565156067
  H   1.26390051596378      0.93708233421567     -1.63330568704627
  H   0.64886748169961      0.99713730059737      1.35592947713308
  H   -0.84206202871548      2.33969324480250      0.13015964561772
