35
Coordinates from ORCA-job file E -1203.961193081044
  C      -4.080100     -2.130900      0.950400
  O      -3.627300     -1.095800      0.083600
  C      -2.437100     -0.373900      0.261500
  C      -1.565400     -0.611200      1.338600
  C      -0.380600      0.135300      1.477700
  O       0.507200     -0.072800      2.546000
  C       0.334800     -1.053500      3.563600
  C      -0.069400      1.119300      0.524100
  S       1.453300      2.067900      0.682200
  C       2.403900      0.899200     -0.292400
  C       3.058800     -0.169700      0.333800
  C       3.794900     -1.083200     -0.427400
  C       3.883800     -0.927700     -1.814200
  C       3.239300      0.143700     -2.440500
  C       2.502700      1.058300     -1.681100
  C      -0.939800      1.371600     -0.549400
  O      -0.602500      2.375800     -1.471300
  C      -1.375000      2.713600     -2.618400
  C      -2.119600      0.615700     -0.672400
  H      -3.341200     -2.959500      0.974400
  H      -5.044300     -2.526000      0.570100
  H      -4.239400     -1.729800      1.973600
  H      -1.808700     -1.371700      2.065300
  H       1.190800     -0.999300      4.266800
  H      -0.601400     -0.858100      4.127900
  H       0.308000     -2.068700      3.114500
  H       2.998100     -0.294700      1.407100
  H       4.297000     -1.910400      0.057400
  H       4.453800     -1.635000     -2.402600
  H       3.311500      0.265800     -3.513500
  H       2.010000      1.887000     -2.172800
  H      -2.382500      3.064900     -2.310600
  H      -1.463800      1.834300     -3.290800
  H      -0.866600      3.531300     -3.168900
  H      -2.803300      0.788300     -1.492400
35
Coordinates from ORCA-job file E -1203.981190472333
  C      -3.996247     -2.011929      1.014073
  O      -3.614079     -1.020808      0.095536
  C      -2.452009     -0.344454      0.277392
  C      -1.600507     -0.598405      1.355204
  C      -0.411333      0.127776      1.480026
  O       0.446797     -0.091495      2.505651
  C       0.153426     -1.079775      3.458671
  C      -0.067557      1.100269      0.534348
  S       1.469410      2.014870      0.684626
  C       2.456401      0.889225     -0.306272
  C       3.123379     -0.178624      0.300666
  C       3.879272     -1.059993     -0.473965
  C       3.975286     -0.873961     -1.853706
  C       3.316796      0.197658     -2.458621
  C       2.560390      1.080774     -1.686694
  C      -0.939668      1.348201     -0.534035
  O      -0.585266      2.296685     -1.433138
  C      -1.418944      2.561262     -2.532373
  C      -2.127586      0.625853     -0.665729
  H      -3.251734     -2.825254      1.047874
  H      -4.954186     -2.420122      0.673005
  H      -4.128130     -1.583354      2.022125
  H      -1.858517     -1.358850      2.091379
  H       0.980772     -1.093594      4.176781
  H      -0.781530     -0.843783      3.994141
  H       0.073317     -2.072312      2.983544
  H       3.045903     -0.325069      1.378358
  H       4.395812     -1.894807      0.001271
  H       4.566373     -1.563282     -2.458237
  H       3.392983      0.346298     -3.536414
  H       2.043016      1.916052     -2.159528
  H      -2.407148      2.918852     -2.198039
  H      -1.537876      1.663012     -3.161099
  H      -0.936196      3.348697     -3.121749
  H      -2.810922      0.804483     -1.495173
35
Coordinates from ORCA-job file E -1203.982065661372
  C      -4.087771     -1.951311      1.038893
  O      -3.630658     -1.023413      0.093905
  C      -2.464586     -0.387905      0.317064
  C      -1.674443     -0.620816      1.446699
  C      -0.462659      0.071488      1.588196
  O       0.352206     -0.120914      2.640368
  C      -0.028333     -1.027305      3.638726
  C      -0.044335      0.994022      0.619143
  S       1.500567      1.870456      0.800953
  C       2.481384      0.873713     -0.324726
  C       3.195915     -0.226737      0.154627
  C       3.950992     -1.003253     -0.724296
  C       3.996705     -0.681940     -2.080829
  C       3.288836      0.421458     -2.557433
  C       2.533668      1.201269     -1.681707
  C      -0.864126      1.218778     -0.500748
  O      -0.423081      2.107163     -1.406955
  C      -1.202158      2.361450     -2.544669
  C      -2.069189      0.528757     -0.656709
  H      -3.379176     -2.787109      1.156469
  H      -5.038906     -2.340294      0.660763
  H      -4.258282     -1.475283      2.018326
  H      -1.988645     -1.336003      2.199482
  H       0.786714     -1.044365      4.369711
  H      -0.954141     -0.705606      4.142104
  H      -0.166252     -2.041248      3.229617
  H       3.150714     -0.474907      1.216291
  H       4.507868     -1.863040     -0.346870
  H       4.589285     -1.289329     -2.767665
  H       3.325758      0.677463     -3.618071
  H       1.971188      2.061331     -2.048593
  H      -2.187850      2.769850     -2.270570
  H      -1.336269      1.451817     -3.151416
  H      -0.657617      3.108181     -3.131907
  H      -2.713423      0.683683     -1.518273
35
Coordinates from ORCA-job file E -1203.982545265160
  C      -4.064148     -1.983035      1.070761
  O      -3.667697     -1.017989      0.136886
  C      -2.504029     -0.377718      0.333017
  C      -1.665420     -0.612977      1.426865
  C      -0.453015      0.093639      1.518497
  O       0.417173     -0.091718      2.520363
  C       0.100592     -1.012739      3.526189
  C      -0.085564      1.032427      0.539900
  S       1.450987      1.915268      0.665163
  C       2.486676      0.869688     -0.363716
  C       3.048373     -0.292203      0.170067
  C       3.852470     -1.106044     -0.626402
  C       4.100634     -0.761651     -1.954489
  C       3.548616      0.404321     -2.483530
  C       2.746448      1.223395     -1.690344
  C      -0.965042      1.260449     -0.541165
  O      -0.572665      2.170113     -1.441401
  C      -1.410401      2.435678     -2.533591
  C      -2.167719      0.558021     -0.649640
  H      -3.342901     -2.813774      1.128769
  H      -5.027463     -2.369252      0.721162
  H      -4.192491     -1.550418      2.075964
  H      -1.937580     -1.336103      2.184358
  H       0.954268     -1.015585      4.211864
  H      -0.804687     -0.718392      4.080620
  H      -0.039980     -2.027725      3.122136
  H       2.838067     -0.553420      1.209282
  H       4.288314     -2.014931     -0.205843
  H       4.731586     -1.399663     -2.576749
  H       3.745842      0.680913     -3.521662
  H       2.305117      2.136403     -2.090765
  H      -2.391812      2.814770     -2.208814
  H      -1.558741      1.543023     -3.160963
  H      -0.904303      3.209750     -3.120486
  H      -2.859603      0.707581     -1.472403
35
Coordinates from ORCA-job file E -1203.983066114699
  C      -4.094004     -1.971369      1.110206
  O      -3.654935     -1.042672      0.155589
  C      -2.485378     -0.402283      0.358925
  C      -1.680877     -0.607141      1.482563
  C      -0.465924      0.090838      1.586313
  O       0.372120     -0.076185      2.626820
  C       0.025526     -0.975282      3.645392
  C      -0.063149      0.994338      0.588305
  S       1.472791      1.875087      0.729649
  C       2.479175      0.883175     -0.376550
  C       2.957830     -0.360199      0.045273
  C       3.744141     -1.130004     -0.810679
  C       4.062039     -0.657879     -2.084176
  C       3.591391      0.586950     -2.501246
  C       2.801636      1.359341     -1.650123
  C      -0.906261      1.191151     -0.527218
  O      -0.479018      2.064747     -1.455493
  C      -1.283109      2.304747     -2.580651
  C      -2.110505      0.495407     -0.645212
  H      -3.380842     -2.804553      1.222216
  H      -5.049456     -2.364567      0.745401
  H      -4.250707     -1.499624      2.094240
  H      -1.982651     -1.302977      2.257996
  H       0.852918     -0.959335      4.363385
  H      -0.901952     -0.672125      4.158244
  H      -0.095737     -2.000416      3.258748
  H       2.697200     -0.716626      1.043519
  H       4.113151     -2.102602     -0.479775
  H       4.678958     -1.260879     -2.752645
  H       3.840031      0.959900     -3.496661
  H       2.422412      2.332637     -1.963074
  H      -2.268586      2.705410     -2.293419
  H      -1.426204      1.391238     -3.179886
  H      -0.754239      3.052366     -3.182269
  H      -2.777884      0.619485     -1.493807
35
Coordinates from ORCA-job file E -1203.983402345485
  C      -4.078669     -1.988301      1.141686
  O      -3.621377     -1.075052      0.179787
  C      -2.455188     -0.426716      0.394990
  C      -1.690533     -0.592218      1.550628
  C      -0.476266      0.102791      1.668173
  O       0.323223     -0.032729      2.747419
  C      -0.062810     -0.894937      3.784523
  C      -0.035706      0.964008      0.650429
  S       1.500879      1.837765      0.796582
  C       2.458988      0.905547     -0.397034
  C       2.767395     -0.435452     -0.147156
  C       3.517650     -1.160524     -1.070429
  C       3.974524     -0.546530     -2.237555
  C       3.672300      0.792782     -2.483226
  C       2.908253      1.518762     -1.568987
  C      -0.837775      1.120357     -0.500202
  O      -0.366916      1.945929     -1.453640
  C      -1.124996      2.135255     -2.620364
  C      -2.041073      0.428398     -0.630539
  H      -3.360574     -2.812928      1.286201
  H      -5.023104     -2.396744      0.764725
  H      -4.259897     -1.497885      2.112806
  H      -2.022834     -1.257079      2.342520
  H       0.736534     -0.857053      4.532922
  H      -1.008205     -0.571347      4.250402
  H      -0.174202     -1.932486      3.427438
  H       2.408280     -0.896122      0.774929
  H       3.756203     -2.206758     -0.872729
  H       4.566332     -1.114187     -2.957161
  H       4.023661      1.273175     -3.397880
  H       2.645519      2.561042     -1.755826
  H      -2.120761      2.547894     -2.388926
  H      -1.247108      1.193520     -3.179972
  H      -0.573268      2.853032     -3.237336
  H      -2.678577      0.514888     -1.507298
35
Coordinates from ORCA-job file E -1203.983492574980
  C      -4.069997     -1.999200      1.168657
  O      -3.586254     -1.105559      0.201195
  C      -2.421398     -0.457416      0.431398
  C      -1.701195     -0.583969      1.619223
  C      -0.485812      0.105379      1.753942
  O       0.270641      0.008534      2.869401
  C      -0.161450     -0.806332      3.926355
  C      -0.000275      0.918819      0.720460
  S       1.540236      1.778821      0.875780
  C       2.439996      0.924363     -0.412653
  C       2.578673     -0.467206     -0.363286
  C       3.277929     -1.132670     -1.366625
  C       3.859328     -0.410752     -2.411308
  C       3.728474      0.976715     -2.455043
  C       3.008187      1.645800     -1.464109
  C      -0.756888      1.036356     -0.464380
  O      -0.230862      1.805574     -1.436133
  C      -0.930890      1.940090     -2.645964
  C      -1.961020      0.351578     -0.611788
  H      -3.352134     -2.816845      1.350936
  H      -5.002393     -2.419375      0.775264
  H      -4.279480     -1.488766      2.123711
  H      -2.068923     -1.213330      2.424774
  H       0.602318     -0.733676      4.708225
  H      -1.126840     -0.461588      4.332295
  H      -0.258666     -1.858966      3.611160
  H       2.130562     -1.011142      0.471156
  H       3.382130     -2.217957     -1.326258
  H       4.412307     -0.932831     -3.193548
  H       4.173137      1.541170     -3.276189
  H       2.866144      2.727258     -1.503090
  H      -1.929461      2.378949     -2.485124
  H      -1.043451      0.968238     -3.153918
  H      -0.339334      2.610934     -3.278242
  H      -2.563440      0.399102     -1.516372
35
Coordinates from ORCA-job file E -1203.983843156780
  C      -4.092108     -1.997103      1.228366
  O      -3.588599     -1.137065      0.241119
  C      -2.416787     -0.499671      0.464877
  C      -1.714726     -0.595114      1.665985
  C      -0.493602      0.086287      1.794131
  O       0.245292      0.026099      2.923038
  C      -0.218651     -0.727210      4.011248
  C       0.016993      0.855684      0.741090
  S       1.554670      1.716533      0.893601
  C       2.435811      0.932952     -0.448027
  C       2.409021     -0.459209     -0.591346
  C       3.104964     -1.064234     -1.633307
  C       3.852491     -0.286179     -2.520968
  C       3.887546      1.098973     -2.370377
  C       3.165895      1.712837     -1.345171
  C      -0.725366      0.947186     -0.456467
  O      -0.176295      1.682320     -1.439911
  C      -0.853425      1.785214     -2.665139
  C      -1.933226      0.269188     -0.599025
  H      -3.379983     -2.810260      1.449116
  H      -5.019643     -2.425905      0.833385
  H      -4.315621     -1.456571      2.163265
  H      -2.100653     -1.191095      2.488068
  H       0.531118     -0.623508      4.802840
  H      -1.186251     -0.348382      4.379778
  H      -0.326259     -1.793434      3.749798
  H       1.835765     -1.049247      0.127415
  H       3.077918     -2.149246     -1.744832
  H       4.402790     -0.762305     -3.333909
  H       4.461755      1.709185     -3.069438
  H       3.145646      2.799713     -1.241120
  H      -1.845664      2.248888     -2.539013
  H      -0.977827      0.796460     -3.136141
  H      -0.236702      2.417634     -3.312272
  H      -2.526388      0.290685     -1.510758
35
Coordinates from ORCA-job file E -1203.984484805561
  C      -4.159408     -1.963241      1.319645
  O      -3.640452     -1.157990      0.296537
  C      -2.453272     -0.547897      0.492375
  C      -1.738042     -0.627356      1.687556
  C      -0.506478      0.044022      1.785292
  O       0.246593      0.014641      2.899463
  C      -0.223839     -0.669423      4.027706
  C       0.003787      0.779985      0.711071
  S       1.537428      1.647600      0.848794
  C       2.454359      0.918527     -0.495313
  C       2.341413     -0.444174     -0.795995
  C       3.087294     -0.989790     -1.834924
  C       3.974104     -0.189581     -2.560184
  C       4.099208      1.161265     -2.246724
  C       3.331759      1.720450     -1.224018
  C      -0.762772      0.871012     -0.474828
  O      -0.230879      1.610094     -1.457586
  C      -0.907233      1.688618     -2.683175
  C      -1.974478      0.194896     -0.593844
  H      -3.459737     -2.772544      1.586230
  H      -5.088525     -2.397749      0.936241
  H      -4.386495     -1.377602      2.225289
  H      -2.120475     -1.195499      2.528593
  H       0.535888     -0.535573      4.804525
  H      -1.179761     -0.252069      4.384306
  H      -0.354905     -1.745803      3.828985
  H       1.658222     -1.057511     -0.204326
  H       2.987248     -2.050335     -2.073352
  H       4.562356     -0.621593     -3.371686
  H       4.787619      1.791335     -2.813306
  H       3.384243      2.788508     -1.000137
  H      -1.902722      2.146542     -2.567601
  H      -1.023612      0.691735     -3.137510
  H      -0.290422      2.313249     -3.337002
  H      -2.588113      0.213352     -1.491197
35
Coordinates from ORCA-job file E -1203.984738615901
  C      -4.178134     -1.948209      1.353423
  O      -3.646611     -1.170846      0.314244
  C      -2.463111     -0.551675      0.505887
  C      -1.746187     -0.618482      1.701371
  C      -0.514119      0.052852      1.791648
  O       0.244698      0.021345      2.902438
  C      -0.215199     -0.674813      4.028560
  C      -0.007205      0.783699      0.709170
  S       1.530705      1.646561      0.842611
  C       2.453736      0.926438     -0.501900
  C       2.297290     -0.416371     -0.865789
  C       3.059423     -0.948473     -1.901027
  C       3.994930     -0.154813     -2.568799
  C       4.156728      1.178203     -2.198378
  C       3.382181      1.723334     -1.174027
  C      -0.773070      0.858470     -0.478495
  O      -0.244589      1.586461     -1.473111
  C      -0.907685      1.629775     -2.708588
  C      -1.983925      0.178420     -0.589046
  H      -3.487949     -2.756261      1.646413
  H      -5.107228     -2.386350      0.972715
  H      -4.409488     -1.336973      2.241452
  H      -2.125781     -1.180925      2.548065
  H       0.547896     -0.543258      4.803289
  H      -1.172524     -0.268152      4.394294
  H      -0.338690     -1.750658      3.821750
  H       1.573548     -1.029866     -0.326167
  H       2.930766     -1.995122     -2.183126
  H       4.593750     -0.577126     -3.377318
  H       4.882480      1.805389     -2.719331
  H       3.476897      2.775966     -0.899801
  H      -1.910789      2.075864     -2.612532
  H      -1.003637      0.622874     -3.145845
  H      -0.292797      2.252532     -3.366855
  H      -2.596410      0.190292     -1.487298
35
Coordinates from ORCA-job file E -1203.985008539377
  C      -4.205180     -1.932805      1.436879
  O      -3.658059     -1.217392      0.360536
  C      -2.480665     -0.579976      0.531163
  C      -1.754609     -0.613968      1.723705
  C      -0.524787      0.062995      1.792106
  O       0.243673      0.048797      2.897063
  C      -0.193599     -0.651063      4.031029
  C      -0.036270      0.784764      0.691210
  S       1.503027      1.648059      0.808795
  C       2.439483      0.941437     -0.528463
  C       2.176273     -0.323808     -1.066198
  C       2.981527     -0.826391     -2.085822
  C       4.054705     -0.082283     -2.577885
  C       4.315052      1.177968     -2.041650
  C       3.510221      1.692614     -1.026432
  C      -0.809033      0.827904     -0.491490
  O      -0.293699      1.536412     -1.508303
  C      -0.928444      1.507597     -2.760179
  C      -2.012645      0.130594     -0.581136
  H      -3.536867     -2.742399      1.771833
  H      -5.143290     -2.369562      1.075658
  H      -4.425408     -1.269207      2.290190
  H      -2.123080     -1.161596      2.585792
  H       0.574755     -0.508265      4.799405
  H      -1.153865     -0.260043      4.406330
  H      -0.299535     -1.729478      3.827013
  H       1.340010     -0.910811     -0.683845
  H       2.771862     -1.815596     -2.497392
  H       4.683853     -0.484113     -3.373118
  H       5.147790      1.772612     -2.421029
  H       3.707539      2.684508     -0.616347
  H      -1.943058      1.934462     -2.703912
  H      -0.987960      0.480974     -3.156618
  H      -0.314490      2.120373     -3.429462
  H      -2.625329      0.126786     -1.479525
35
Coordinates from ORCA-job file E -1203.984578957482
  C      -4.228490     -1.914515      1.536423
  O      -3.713270     -1.235673      0.420790
  C      -2.537854     -0.584835      0.537900
  C      -1.755410     -0.615025      1.696406
  C      -0.530793      0.072457      1.714746
  O       0.283755      0.061964      2.784802
  C      -0.086754     -0.664354      3.926440
  C      -0.107230      0.815063      0.597145
  S       1.420356      1.701567      0.679752
  C       2.427942      0.934690     -0.560745
  C       2.186656     -0.306123     -1.159616
  C       3.094639     -0.817861     -2.088408
  C       4.242623     -0.109972     -2.439385
  C       4.477705      1.130795     -1.845928
  C       3.581219      1.651219     -0.917204
  C      -0.930824      0.853813     -0.546829
  O      -0.472663      1.572815     -1.583092
  C      -1.133623      1.516834     -2.821269
  C      -2.128296      0.138708     -0.587793
  H      -3.580694     -2.748077      1.850646
  H      -5.200259     -2.318982      1.230120
  H      -4.377926     -1.224980      2.384640
  H      -2.077170     -1.170152      2.572471
  H       0.712665     -0.522423      4.662876
  H      -1.035646     -0.298801      4.352251
  H      -0.179028     -1.740971      3.707163
  H       1.293883     -0.882608     -0.911515
  H       2.899600     -1.791054     -2.544169
  H       4.948321     -0.521332     -3.161718
  H       5.367717      1.705245     -2.108268
  H       3.787893      2.616809     -0.453076
  H      -2.148190      1.941096     -2.750267
  H      -1.190794      0.483595     -3.200082
  H      -0.538780      2.126641     -3.510550
  H      -2.771382      0.144526     -1.464756
35
Coordinates from ORCA-job file E -1203.984975220324
  C      -4.252973     -1.891057      1.556662
  O      -3.714369     -1.236949      0.437419
  C      -2.528025     -0.605963      0.558905
  C      -1.765311     -0.623233      1.729338
  C      -0.533663      0.052098      1.752017
  O       0.262673      0.059154      2.835896
  C      -0.139351     -0.626555      3.991555
  C      -0.076542      0.755867      0.623737
  S       1.444343      1.648956      0.712937
  C       2.434214      0.951566     -0.582771
  C       2.124187     -0.207093     -1.302415
  C       3.012008     -0.683800     -2.266879
  C       4.212356     -0.023995     -2.526897
  C       4.518791      1.132182     -1.809407
  C       3.638132      1.619953     -0.848064
  C      -0.879321      0.773309     -0.538204
  O      -0.398041      1.469417     -1.579212
  C      -1.056735      1.405795     -2.818037
  C      -2.087862      0.079029     -0.579994
  H      -3.612083     -2.720617      1.896417
  H      -5.221908     -2.296070      1.242718
  H      -4.411016     -1.187655      2.391368
  H      -2.110088     -1.153371      2.612172
  H       0.650900     -0.474978      4.735647
  H      -1.088587     -0.231913      4.390119
  H      -0.248974     -1.707557      3.803644
  H       1.194228     -0.744464     -1.110812
  H       2.763179     -1.592630     -2.818641
  H       4.902851     -0.408461     -3.278092
  H       5.449866      1.667740     -2.002208
  H       3.887534      2.526136     -0.292878
  H      -2.070843      1.832756     -2.754075
  H      -1.119429      0.368797     -3.185654
  H      -0.457719      2.004220     -3.513224
  H      -2.722520      0.069486     -1.463186
35
Coordinates from ORCA-job file E -1203.985108950128
  C      -4.196795     -1.941217      1.444796
  O      -3.671988     -1.213459      0.366531
  C      -2.487751     -0.583761      0.518904
  C      -1.739492     -0.630627      1.696034
  C      -0.515524      0.057490      1.750201
  O       0.266076      0.052847      2.844957
  C      -0.154171     -0.642141      3.987134
  C      -0.043839      0.782362      0.646988
  S       1.458808      1.702538      0.751018
  C       2.441509      0.955759     -0.528159
  C       2.179452     -0.316601     -1.044865
  C       3.002921     -0.847022     -2.034453
  C       4.100803     -0.125322     -2.505743
  C       4.366016      1.139602     -1.982909
  C       3.537836      1.682561     -1.002839
  C      -0.832024      0.822267     -0.525789
  O      -0.333612      1.542781     -1.541651
  C      -1.020258      1.553112     -2.765407
  C      -2.039739      0.131079     -0.597958
  H      -3.523499     -2.763076      1.740742
  H      -5.149759     -2.360807      1.105118
  H      -4.379150     -1.295290      2.318732
  H      -2.092106     -1.189239      2.557184
  H       0.625109     -0.494604      4.742142
  H      -1.108219     -0.246221      4.372479
  H      -0.267017     -1.720983      3.789359
  H       1.332568     -0.887874     -0.660388
  H       2.789089     -1.839347     -2.435340
  H       4.744704     -0.547452     -3.278436
  H       5.218034      1.716103     -2.347768
  H       3.725579      2.684466     -0.609157
  H      -2.024783      1.994426     -2.661356
  H      -1.116597      0.535080     -3.175894
  H      -0.423446      2.165169     -3.449284
  H      -2.668835      0.127503     -1.485022
35
Coordinates from ORCA-job file E -1203.985305111583
  C      -4.211982     -1.931018      1.508044
  O      -3.703408     -1.225337      0.407024
  C      -2.521652     -0.586442      0.530821
  C      -1.745441     -0.626332      1.691206
  C      -0.522025      0.063793      1.716123
  O       0.284372      0.061591      2.792025
  C      -0.102534     -0.642762      3.940888
  C      -0.084096      0.796948      0.602030
  S       1.418886      1.718448      0.684284
  C       2.434541      0.952703     -0.553714
  C       2.167785     -0.288974     -1.138404
  C       3.049022     -0.816349     -2.081276
  C       4.202955     -0.123588     -2.446470
  C       4.469518      1.113222     -1.859322
  C       3.591160      1.651711     -0.923077
  C      -0.900277      0.834114     -0.550267
  O      -0.425577      1.547817     -1.582102
  C      -1.118214      1.532775     -2.803172
  C      -2.103658      0.131674     -0.595594
  H      -3.547302     -2.760054      1.801524
  H      -5.178377     -2.341378      1.195148
  H      -4.365641     -1.266884      2.374423
  H      -2.074071     -1.185992      2.561334
  H       0.692210     -0.493298      4.679794
  H      -1.051291     -0.258659      4.350526
  H      -0.207997     -1.721614      3.739547
  H       1.274739     -0.846888     -0.851742
  H       2.831358     -1.786459     -2.532297
  H       4.889972     -0.545015     -3.181303
  H       5.366955      1.669970     -2.134828
  H       3.798476      2.624833     -0.472596
  H      -2.122925      1.973877     -2.701047
  H      -1.210999      0.507924     -3.197133
  H      -0.527081      2.137927     -3.498606
  H      -2.747501      0.127815     -1.471890
35
Coordinates from ORCA-job file E -1203.985272824915
  C      -4.229954     -1.913786      1.549403
  O      -3.724175     -1.225652      0.435864
  C      -2.536203     -0.595695      0.542779
  C      -1.750727     -0.630307      1.697300
  C      -0.523974      0.053994      1.707345
  O       0.288565      0.059884      2.778309
  C      -0.094849     -0.629302      3.937722
  C      -0.092456      0.777998      0.584247
  S       1.406342      1.705488      0.658960
  C       2.436434      0.950957     -0.572127
  C       2.153315     -0.249690     -1.230342
  C       3.057503     -0.760919     -2.161349
  C       4.248720     -0.093830     -2.443747
  C       4.530213      1.103035     -1.784811
  C       3.631423      1.625280     -0.859781
  C      -0.915439      0.806334     -0.563320
  O      -0.446552      1.510964     -1.603693
  C      -1.147413      1.490813     -2.820214
  C      -2.122601      0.109535     -0.593581
  H      -3.574449     -2.749606      1.843804
  H      -5.205495     -2.313382      1.251098
  H      -4.363982     -1.238406      2.410545
  H      -2.075997     -1.180192      2.575002
  H       0.703939     -0.474601      4.671293
  H      -1.040230     -0.236825      4.347278
  H      -0.205099     -1.710032      3.749480
  H       1.231380     -0.791418     -1.012465
  H       2.827032     -1.699669     -2.669016
  H       4.952360     -0.503012     -3.169596
  H       5.455983      1.641598     -1.994586
  H       3.854166      2.566273     -0.352383
  H      -2.150579      1.934223     -2.712883
  H      -1.244260      0.464393     -3.209176
  H      -0.560278      2.092373     -3.522228
  H      -2.772760      0.103282     -1.465233
35
Coordinates from ORCA-job file E -1203.985336096096
  C      -4.220825     -1.923985      1.533810
  O      -3.717745     -1.222859      0.427378
  C      -2.529916     -0.593140      0.539381
  C      -1.748338     -0.629969      1.696211
  C      -0.522319      0.055846      1.711315
  O       0.287223      0.060666      2.784612
  C      -0.101929     -0.625144      3.943964
  C      -0.086719      0.780440      0.590994
  S       1.410406      1.710334      0.667703
  C       2.437120      0.953131     -0.565499
  C       2.151113     -0.255821     -1.207035
  C       3.044252     -0.772029     -2.145369
  C       4.228178     -0.101328     -2.449760
  C       4.514027      1.102354     -1.805369
  C       3.624748      1.629991     -0.873928
  C      -0.905839      0.809670     -0.559719
  O      -0.431564      1.513489     -1.598026
  C      -1.134380      1.501309     -2.813272
  C      -2.113009      0.113614     -0.594882
  H      -3.559708     -2.758253      1.820451
  H      -5.193798     -2.326387      1.231357
  H      -4.358890     -1.258559      2.401907
  H      -2.076209     -1.182576      2.571133
  H       0.694668     -0.470295      4.679705
  H      -1.047782     -0.229164      4.349046
  H      -0.214681     -1.705959      3.757773
  H       1.234365     -0.797715     -0.968622
  H       2.811020     -1.716191     -2.641382
  H       4.923446     -0.513529     -3.182047
  H       5.435435      1.641587     -2.031888
  H       3.846966      2.577827     -0.378910
  H      -2.136743      1.945607     -2.702171
  H      -1.234417      0.477056     -3.207099
  H      -0.547227      2.104426     -3.513760
  H      -2.761027      0.105657     -1.468102
35
Coordinates from ORCA-job file E -1203.985330532918
  C      -4.218815     -1.926017      1.535554
  O      -3.719910     -1.221900      0.429250
  C      -2.531231     -0.593226      0.538032
  C      -1.746114     -0.631400      1.692394
  C      -0.520721      0.055709      1.704727
  O       0.291965      0.060279      2.775395
  C      -0.095006     -0.623524      3.936570
  C      -0.088887      0.781730      0.584209
  S       1.403776      1.718687      0.658040
  C       2.437286      0.954727     -0.565220
  C       2.151516     -0.255143     -1.204911
  C       3.047564     -0.775568     -2.138061
  C       4.234288     -0.107997     -2.438585
  C       4.520360      1.096313     -1.795296
  C       3.628275      1.627822     -0.868879
  C      -0.910652      0.810303     -0.564683
  O      -0.438550      1.514588     -1.603491
  C      -1.148119      1.508394     -2.814672
  C      -2.117642      0.113912     -0.597238
  H      -3.554925     -2.759465      1.818447
  H      -5.191876     -2.329512      1.235164
  H      -4.355247     -1.263115      2.405720
  H      -2.071137     -1.185871      2.567111
  H       0.702480     -0.466544      4.670770
  H      -1.040558     -0.227172      4.341949
  H      -0.207517     -1.704727      3.752663
  H       1.233107     -0.794707     -0.967678
  H       2.814235     -1.720299     -2.632846
  H       4.931685     -0.522876     -3.167359
  H       5.443980      1.632855     -2.019180
  H       3.849707      2.576431     -0.374794
  H      -2.149560      1.952782     -2.696196
  H      -1.251341      0.485958     -3.212391
  H      -0.564360      2.113636     -3.516053
  H      -2.768156      0.105038     -1.468562
35
Coordinates from ORCA-job file E -1203.985313776673
  C      -4.214218     -1.931141      1.537878
  O      -3.722533     -1.221049      0.432196
  C      -2.533493     -0.592341      0.536621
  C      -1.743496     -0.631803      1.687591
  C      -0.518965      0.057049      1.696023
  O       0.298207      0.060865      2.763130
  C      -0.085664     -0.620448      3.926831
  C      -0.092944      0.785751      0.575059
  S       1.395466      1.729638      0.644876
  C       2.437250      0.956600     -0.565594
  C       2.151483     -0.253750     -1.204125
  C       3.052546     -0.780304     -2.129083
  C       4.243954     -0.118098     -2.422474
  C       4.530241      1.086655     -1.779904
  C       3.633522      1.623960     -0.861534
  C      -0.918391      0.813118     -0.571301
  O      -0.449769      1.517066     -1.611879
  C      -1.168806      1.517983     -2.817413
  C      -2.125106      0.116122     -0.599804
  H      -3.546939     -2.764406      1.813333
  H      -5.188109     -2.335191      1.241042
  H      -4.346856     -1.272801      2.412095
  H      -2.064567     -1.188522      2.562337
  H       0.713404     -0.461339      4.658821
  H      -1.030534     -0.223598      4.333273
  H      -0.198063     -1.702131      3.745644
  H       1.229190     -0.788889     -0.972087
  H       2.818984     -1.725390     -2.623074
  H       4.944987     -0.537093     -3.145392
  H       5.458014      1.618427     -1.997910
  H       3.855094      2.572479     -0.367285
  H      -2.168411      1.963802     -2.689326
  H      -1.277442      0.497677     -3.219230
  H      -0.589209      2.124878     -3.520808
  H      -2.778928      0.106324     -1.468628
35
Coordinates from ORCA-job file E -1203.985300923504
  C      -4.211106     -1.934470      1.539258
  O      -3.723122     -1.221833      0.433549
  C      -2.534396     -0.592183      0.535676
  C      -1.741662     -0.631910      1.684761
  C      -0.518002      0.058579      1.691116
  O       0.301916      0.061720      2.756005
  C      -0.079827     -0.618854      3.920877
  C      -0.095771      0.789307      0.569962
  S       1.390849      1.736270      0.637517
  C       2.436716      0.957986     -0.566016
  C       2.150614     -0.252492     -1.204083
  C       3.054933     -0.783241     -2.123546
  C       4.249394     -0.124739     -2.412422
  C       4.535812      1.080375     -1.770501
  C       3.636229      1.621653     -0.857361
  C      -0.923180      0.815678     -0.574973
  O      -0.457001      1.519674     -1.616654
  C      -1.181020      1.523927     -2.819201
  C      -2.129333      0.117557     -0.601209
  H      -3.541505     -2.766663      1.812303
  H      -5.184786     -2.340150      1.243955
  H      -4.343240     -1.277640      2.414706
  H      -2.060147     -1.190059      2.559551
  H       0.719910     -0.458209      4.651807
  H      -1.024701     -0.222703      4.327966
  H      -0.191116     -1.700856      3.740888
  H       1.225417     -0.784400     -0.976326
  H       2.821168     -1.728564     -2.617013
  H       4.952702     -0.546604     -3.131461
  H       5.466384      1.608856     -1.984541
  H       3.858386      2.570007     -0.363077
  H      -2.179860      1.969967     -2.686113
  H      -1.291880      0.504739     -3.223285
  H      -0.603924      2.132096     -3.523569
  H      -2.784951      0.107280     -1.468648
35
Coordinates from ORCA-job file E -1203.985295368286
  C      -4.209318     -1.936662      1.539575
  O      -3.723155     -1.222393      0.434086
  C      -2.534747     -0.592021      0.535404
  C      -1.740893     -0.631853      1.683715
  C      -0.517547      0.059231      1.689225
  O       0.303534      0.062008      2.753200
  C      -0.077798     -0.617388      3.918926
  C      -0.096934      0.790873      0.567975
  S       1.389237      1.738702      0.634676
  C       2.436497      0.958436     -0.566333
  C       2.149829     -0.251671     -1.204874
  C       3.055484     -0.784156     -2.122061
  C       4.251584     -0.127647     -2.408512
  C       4.538364      1.077253     -1.766329
  C       3.637654      1.620204     -0.855308
  C      -0.925146      0.816977     -0.576316
  O      -0.459935      1.520755     -1.618612
  C      -1.186148      1.526456     -2.819844
  C      -2.131078      0.118393     -0.601571
  H      -3.538449     -2.768206      1.811416
  H      -5.182725     -2.343377      1.244750
  H      -4.341632     -1.280700      2.415671
  H      -2.058333     -1.190521      2.558578
  H       0.722101     -0.455930      4.649518
  H      -1.022649     -0.220999      4.325815
  H      -0.188846     -1.699620      3.740118
  H       1.223061     -0.781886     -0.979700
  H       2.821366     -1.729264     -2.615790
  H       4.955776     -0.550695     -3.125989
  H       5.470385      1.604034     -1.978247
  H       3.860514      2.568167     -0.360627
  H      -2.184551      1.972832     -2.684635
  H      -1.298176      0.507733     -3.224814
  H      -0.610017      2.134984     -3.524715
  H      -2.787409      0.108051     -1.468474
