35
Coordinates from ORCA-job file
  C   -4.20931838108181     -1.93666184875465      1.53957492386361
  O   -3.72315464239694     -1.22239343115446      0.43408641053528
  C   -2.53474655840690     -0.59202134833113      0.53540372410431
  C   -1.74089332683631     -0.63185333183874      1.68371494024517
  C   -0.51754674492092      0.05923146117621      1.68922465638106
  O   0.30353370682691      0.06200800485771      2.75320038210620
  C   -0.07779822138913     -0.61738798638556      3.91892644884529
  C   -0.09693362098320      0.79087305162280      0.56797454902050
  S   1.38923673029249      1.73870249417128      0.63467558320921
  C   2.43649725055130      0.95843593681046     -0.56633321588586
  C   2.14982854325879     -0.25167123408068     -1.20487398854715
  C   3.05548448437432     -0.78415551965203     -2.12206143648048
  C   4.25158418446875     -0.12764694605858     -2.40851169449128
  C   4.53836440432595      1.07725275713408     -1.76632861757693
  C   3.63765353994661      1.62020370102872     -0.85530786780059
  C   -0.92514594517429      0.81697651407238     -0.57631606483006
  O   -0.45993514243996      1.52075532052865     -1.61861158285715
  C   -1.18614771448668      1.52645594077051     -2.81984409511000
  C   -2.13107808187518      0.11839332131368     -0.60157145327689
  H   -3.53844917194876     -2.76820572341350      1.81141614820842
  H   -5.18272491551146     -2.34337745672341      1.24475045882196
  H   -4.34163194123467     -1.28069957230702      2.41567130884950
  H   -2.05833299490672     -1.19052062838104      2.55857776323937
  H   0.72210096140814     -0.45593012403598      4.64951830649276
  H   -1.02264926388999     -0.22099902627657      4.32581548706667
  H   -0.18884588948289     -1.69962048395759      3.74011759498422
  H   1.22306121459541     -0.78188595423026     -0.97969960414546
  H   2.82136601530270     -1.72926388425213     -2.61578968212229
  H   4.95577583779275     -0.55069487997968     -3.12598851012547
  H   5.47038498793985      1.60403364665519     -1.97824656621277
  H   3.86051431617489      2.56816713062180     -0.36062674885699
  H   -2.18455117091494      1.97283192415992     -2.68463481108594
  H   -1.29817614635870      0.50773332625463     -3.22481354659101
  H   -0.61001748787081      2.13498396161918     -3.52471548624752
  H   -2.78740881514856      0.10805088701583     -1.46847371372971
