12
Coordinates from ORCA-job file
  C   -1.04944535814400      0.86388358952941      0.06727737442341
  O   -1.79857042720403     -0.35220990082715     -0.16898933826848
  C   -0.65330646071514     -1.19247425876946      0.11083672560776
  C   0.21912626848258      0.04561236546907      0.26052143442804
  C   1.61503596248807      0.30773319334913     -0.07152676184453
  O   1.15697731584463      0.24775263392255      1.29172272010264
  H   -1.08008069208570      1.53680861199559     -0.79724784890683
  H   -1.38261078376965      1.38546189276592      0.97267405060455
  H   -0.77612497934301     -1.76325503185398      1.03929649489743
  H   -0.42459535984828     -1.86349267236618     -0.72502313200506
  H   1.91166708530783      1.29926100388207     -0.41336105103694
  H   2.26192742898672     -0.51508142709698     -0.37548066800199
