12
Coordinates from ORCA-job file E -306.488256140075
  C      -1.040400      0.841700      0.036500
  O      -1.811200     -0.348100      0.149300
  C      -0.652600     -1.169800      0.079000
  C       0.206100      0.036700     -0.043700
  C       1.662500      0.318200     -0.006500
  O       0.923200      0.200600      1.170000
  H      -1.258900      1.374500     -0.913800
  H      -1.136200      1.474800      0.947200
  H      -0.513500     -1.755500      1.015400
  H      -0.650100     -1.783800     -0.847000
  H       1.949900      1.368700     -0.218200
  H       2.321200     -0.558000     -0.177500
12
Coordinates from ORCA-job file E -306.501443510963
  C      -1.055142      0.858714      0.024386
  O      -1.827831     -0.351285      0.152776
  C      -0.659722     -1.191492      0.067658
  C       0.219643      0.040108     -0.010556
  C       1.669193      0.319774      0.009355
  O       0.967163      0.210385      1.219635
  H      -1.303892      1.387251     -0.906982
  H      -1.141455      1.501716      0.908066
  H      -0.507796     -1.783986      0.977390
  H      -0.687073     -1.811965     -0.839480
  H       1.984657      1.338933     -0.225453
  H       2.342255     -0.518154     -0.186094
12
Coordinates from ORCA-job file E -306.506218783187
  C      -1.058622      0.861113      0.021240
  O      -1.833054     -0.352073      0.163360
  C      -0.662039     -1.195150      0.064597
  C       0.222249      0.041614      0.036969
  C       1.662257      0.318590      0.018856
  O       0.989615      0.215697      1.254183
  H      -1.309334      1.376357     -0.914932
  H      -1.151317      1.527462      0.884629
  H      -0.507091     -1.812596      0.954987
  H      -0.696157     -1.804137     -0.847934
  H       1.996052      1.323946     -0.242115
  H       2.347440     -0.500823     -0.203140
12
Coordinates from ORCA-job file E -306.508979356864
  C      -1.058564      0.860261      0.025456
  O      -1.835577     -0.352284      0.174037
  C      -0.662497     -1.194218      0.068869
  C       0.221876      0.042481      0.085433
  C       1.655926      0.317402      0.018786
  O       1.011060      0.220053      1.276938
  H      -1.289404      1.357503     -0.925585
  H      -1.173050      1.548319      0.869253
  H      -0.519543     -1.840664      0.940726
  H      -0.684822     -1.779785     -0.859374
  H       1.992550      1.316873     -0.261232
  H       2.342045     -0.495940     -0.222607
12
Coordinates from ORCA-job file E -306.510859850039
  C      -1.057289      0.859112      0.033145
  O      -1.837790     -0.352601      0.176768
  C      -0.661970     -1.192473      0.076612
  C       0.221475      0.043270      0.131439
  C       1.649898      0.316180      0.012155
  O       1.034476      0.224546      1.293456
  H      -1.257514      1.340753     -0.932589
  H      -1.201719      1.562727      0.859415
  H      -0.541102     -1.865064      0.931923
  H      -0.661597     -1.752888     -0.867142
  H       1.981936      1.312988     -0.281316
  H       2.331197     -0.496549     -0.243164
12
Coordinates from ORCA-job file E -306.512089555203
  C      -1.056004      0.858310      0.042005
  O      -1.840373     -0.353379      0.163386
  C      -0.661130     -1.190933      0.085359
  C       0.221257      0.044102      0.172911
  C       1.643195      0.314679      0.001179
  O       1.059800      0.229588      1.305325
  H      -1.220606      1.335098     -0.932779
  H      -1.233407      1.566817      0.857778
  H      -0.569249     -1.880585      0.930799
  H      -0.629258     -1.734045     -0.867884
  H       1.968178      1.310336     -0.302670
  H       2.317598     -0.499988     -0.264708
12
Coordinates from ORCA-job file E -306.512834977653
  C      -1.055060      0.858415      0.049761
  O      -1.842373     -0.354523      0.126598
  C      -0.660278     -1.190413      0.093047
  C       0.220741      0.044666      0.204874
  C       1.636214      0.313092     -0.012091
  O       1.083451      0.234230      1.311065
  H      -1.184808      1.349623     -0.922945
  H      -1.263785      1.555560      0.868214
  H      -0.601853     -1.880947      0.941049
  H      -0.590622     -1.733908     -0.857773
  H       1.954374      1.308009     -0.324496
  H       2.303999     -0.503804     -0.286603
12
Coordinates from ORCA-job file E -306.513307476045
  C      -1.054394      0.859584      0.055205
  O      -1.841278     -0.355438      0.072621
  C      -0.659232     -1.191059      0.098511
  C       0.219741      0.044906      0.225260
  C       1.630020      0.311624     -0.025424
  O       1.102545      0.238008      1.310889
  H      -1.154972      1.382014     -0.904344
  H      -1.290564      1.530831      0.888105
  H      -0.636072     -1.867190      0.960073
  H      -0.550950     -1.752053     -0.838165
  H       1.942712      1.305832     -0.345030
  H       2.292442     -0.507059     -0.307002
12
Coordinates from ORCA-job file E -306.513633050207
  C      -1.053554      0.861447      0.058836
  O      -1.835684     -0.355633      0.012657
  C      -0.657843     -1.192351      0.102312
  C       0.218453      0.044921      0.238696
  C       1.624672      0.310345     -0.038147
  O       1.118694      0.241026      1.307414
  H      -1.130179      1.422571     -0.880636
  H      -1.315494      1.498659      0.910853
  H      -0.671466     -1.845814      0.981679
  H      -0.513056     -1.779421     -0.812975
  H       1.932776      1.303862     -0.364030
  H       2.282680     -0.509613     -0.325959
12
Coordinates from ORCA-job file E -306.513837382528
  C      -1.052600      0.862698      0.061611
  O      -1.826166     -0.355349     -0.055293
  C      -0.656448     -1.192916      0.105114
  C       0.218024      0.045041      0.244627
  C       1.621361      0.309399     -0.049885
  O       1.131319      0.243497      1.300891
  H      -1.112366      1.466522     -0.851793
  H      -1.337286      1.458548      0.936537
  H      -0.706894     -1.815753      1.005677
  H      -0.480119     -1.812188     -0.782560
  H       1.925609      1.302268     -0.381298
  H       2.275566     -0.511765     -0.342927
12
Coordinates from ORCA-job file E -306.513931029569
  C      -1.050543      0.864637      0.064709
  O      -1.812242     -0.353819     -0.108160
  C      -0.654010     -1.193783      0.108454
  C       0.217368      0.045252      0.260534
  C       1.615404      0.308038     -0.062572
  O       1.148910      0.246513      1.298274
  H      -1.088313      1.503856     -0.825419
  H      -1.366100      1.425014      0.952303
  H      -0.746516     -1.794825      1.020382
  H      -0.444184     -1.836899     -0.754576
  H       1.915054      1.299929     -0.400624
  H       2.265171     -0.513913     -0.362605
12
Coordinates from ORCA-job file E -306.513963405571
  C      -1.049620      0.863538      0.067340
  O      -1.795287     -0.352093     -0.184354
  C      -0.653622     -1.192194      0.111021
  C       0.219200      0.045574      0.257595
  C       1.615744      0.307862     -0.072776
  O       1.157574      0.247809      1.289018
  H      -1.080958      1.545217     -0.790028
  H      -1.383825      1.375476      0.978111
  H      -0.781300     -1.754353      1.044322
  H      -0.422370     -1.871197     -0.717409
  H       1.912077      1.299417     -0.414987
  H       2.262388     -0.515053     -0.377154
12
Coordinates from ORCA-job file E -306.513974864161
  C      -1.049538      0.863876      0.067197
  O      -1.799333     -0.352363     -0.166234
  C      -0.653250     -1.192432      0.110618
  C       0.219033      0.045657      0.260394
  C       1.615058      0.307670     -0.070996
  O       1.156470      0.247987      1.291952
  H      -1.080747      1.535188     -0.798603
  H      -1.381582      1.387219      0.971988
  H      -0.774505     -1.764557      1.038447
  H      -0.425468     -1.862070     -0.726651
  H       1.911874      1.299118     -0.412861
  H       2.261989     -0.515293     -0.374551
12
Coordinates from ORCA-job file E -306.513974619734
  C      -1.049445      0.863884      0.067277
  O      -1.798570     -0.352210     -0.168989
  C      -0.653306     -1.192474      0.110837
  C       0.219126      0.045612      0.260521
  C       1.615036      0.307733     -0.071527
  O       1.156977      0.247753      1.291723
  H      -1.080081      1.536809     -0.797248
  H      -1.382611      1.385462      0.972674
  H      -0.776125     -1.763255      1.039296
  H      -0.424595     -1.863493     -0.725023
  H       1.911667      1.299261     -0.413361
  H       2.261927     -0.515081     -0.375481
