21
Coordinates from ORCA-job file
  C   1.63633273646493      0.08938509790926      0.88179598924160
  C   2.38603607942524      0.02923854265621     -0.47042874451583
  O   1.47596274991334      0.13892912137313     -1.56253399314480
  C   0.29013665101880     -0.59164282896327     -1.30238457120078
  C   -0.52440245212851      0.08396021690746     -0.18300304550355
  C   -1.72614758514528      0.97064932324218     -0.59053482836148
  N   -2.59010692856370      0.23636518816019      0.35928084401904
  C   -1.56969450797084     -0.82513123728152      0.51104753612975
  N   0.35494994860729      0.77658796950891      0.75943974594121
  H   1.43671343128060     -0.92100523240550      1.26023259443305
  H   2.25056475750792      0.59212981910870      1.63609735042815
  H   2.96241616591096     -0.90652284630587     -0.55811453135100
  H   3.07620918927897      0.87215799356516     -0.57825530776708
  H   0.53974818881308     -1.62908148209231     -1.01838558140261
  H   -0.27465107567658     -0.62891248155767     -2.23869848711654
  H   -1.62970272123863      2.04014616787130     -0.36685741733659
  H   -1.99689410391379      0.84826280648619     -1.64879765085044
  H   -3.47892688578607     -0.07229932033007     -0.01779435634408
  H   -1.34774319996093     -1.09068821023561      1.55025529020331
  H   -1.77774640838218     -1.73787529833140     -0.06897632643674
  H   0.50704597054539      1.72544669071454      0.43081549093541
