21
Coordinates from ORCA-job file E -420.725419625234
  C       1.653600      0.118000      0.899700
  C       2.324900     -0.070600     -0.484100
  O       1.442300      0.157700     -1.571800
  C       0.219000     -0.510700     -1.350200
  C      -0.518300      0.142400     -0.153100
  C      -1.753200      0.969600     -0.506300
  N      -2.662200      0.055800      0.187600
  C      -1.510800     -0.768700      0.559900
  N       0.381800      0.840600      0.783400
  H       1.468400     -0.876100      1.363700
  H       2.335200      0.674900      1.578700
  H       2.764500     -1.089800     -0.560200
  H       3.164700      0.650900     -0.572100
  H       0.402500     -1.593700     -1.159700
  H      -0.389700     -0.457500     -2.276900
  H      -1.768700      1.970700     -0.021800
  H      -1.972100      1.033000     -1.596600
  H      -3.222000     -0.462500     -0.530800
  H      -1.378500     -0.779900      1.664300
  H      -1.576100     -1.795600      0.132000
  H       0.594800      1.791600      0.398500
21
Coordinates from ORCA-job file E -420.733728444094
  C       1.653364      0.117375      0.883851
  C       2.354204     -0.067700     -0.488238
  O       1.452151      0.158827     -1.563634
  C       0.230341     -0.514219     -1.322505
  C      -0.527553      0.139186     -0.144454
  C      -1.760691      0.995728     -0.513644
  N      -2.680378      0.049929      0.170277
  C      -1.528024     -0.803565      0.567495
  N       0.385498      0.833727      0.760477
  H       1.450335     -0.855349      1.348937
  H       2.308090      0.667616      1.567300
  H       2.785090     -1.079646     -0.571676
  H       3.166686      0.653846     -0.614503
  H       0.426345     -1.580607     -1.111443
  H      -0.354756     -0.462890     -2.246125
  H      -1.765254      1.984564     -0.042085
  H      -1.946341      1.098723     -1.589074
  H      -3.257003     -0.433073     -0.506120
  H      -1.391451     -0.836134      1.652654
  H      -1.573369     -1.823394      0.162755
  H       0.572815      1.757154      0.383951
21
Coordinates from ORCA-job file E -420.734362121144
  C       1.667419      0.103003      0.872631
  C       2.361363     -0.030999     -0.507741
  O       1.427038      0.158068     -1.565505
  C       0.230630     -0.548259     -1.289375
  C      -0.531224      0.121975     -0.124355
  C      -1.739164      1.002955     -0.521710
  N      -2.687444      0.072951      0.146126
  C      -1.562536     -0.805962      0.569284
  N       0.392755      0.809589      0.775334
  H       1.471136     -0.883595      1.310292
  H       2.318282      0.636513      1.572769
  H       2.835733     -1.020988     -0.609360
  H       3.129791      0.734957     -0.647189
  H       0.462401     -1.599848     -1.046898
  H      -0.363440     -0.537611     -2.208627
  H      -1.735508      1.992452     -0.050558
  H      -1.889995      1.119777     -1.601433
  H      -3.293568     -0.391586     -0.521269
  H      -1.446195     -0.849170      1.656950
  H      -1.608249     -1.826866      0.165741
  H       0.560876      1.742745      0.409093
21
Coordinates from ORCA-job file E -420.734679053727
  C       1.674827      0.088056      0.863092
  C       2.364227      0.000831     -0.521522
  O       1.410690      0.146820     -1.571266
  C       0.232184     -0.577367     -1.264394
  C      -0.532058      0.112067     -0.114980
  C      -1.722911      1.007890     -0.532723
  N      -2.686748      0.099721      0.140601
  C      -1.583432     -0.804083      0.564313
  N       0.396232      0.789848      0.789253
  H       1.482128     -0.913480      1.267422
  H       2.325442      0.598040      1.581003
  H       2.891627     -0.960785     -0.634245
  H       3.085986      0.811136     -0.663940
  H       0.489378     -1.614558     -0.987470
  H      -0.369803     -0.612209     -2.177915
  H      -1.709731      2.003527     -0.073826
  H      -1.854239      1.117970     -1.616513
  H      -3.328764     -0.342596     -0.506580
  H      -1.478293     -0.862945      1.652513
  H      -1.636631     -1.820304      0.148482
  H       0.549989      1.732522      0.442897
21
Coordinates from ORCA-job file E -420.734845515549
  C       1.684024      0.075470      0.855014
  C       2.363532      0.035282     -0.534616
  O       1.394788      0.132671     -1.577058
  C       0.234549     -0.608260     -1.242289
  C      -0.532018      0.094893     -0.106434
  C      -1.700636      1.009553     -0.544848
  N      -2.683298      0.134890      0.142041
  C      -1.608191     -0.802503      0.558853
  N       0.395822      0.761806      0.807812
  H       1.506923     -0.939885      1.230745
  H       2.334863      0.570770      1.583070
  H       2.947321     -0.891999     -0.656482
  H       3.035178      0.888188     -0.675391
  H       0.512736     -1.633015     -0.940472
  H      -0.375677     -0.681091     -2.147985
  H      -1.669712      2.014687     -0.107663
  H      -1.822490      1.098303     -1.631790
  H      -3.359196     -0.283303     -0.486155
  H      -1.510320     -0.881571      1.646382
  H      -1.682401     -1.810170      0.124903
  H       0.534305      1.715382      0.486562
21
Coordinates from ORCA-job file E -420.734960391227
  C       1.680789      0.074013      0.856003
  C       2.370517      0.040762     -0.526801
  O       1.408661      0.115825     -1.578744
  C       0.241888     -0.615584     -1.247115
  C      -0.531466      0.092241     -0.119455
  C      -1.701800      1.006867     -0.557931
  N      -2.669881      0.159970      0.180309
  C      -1.604521     -0.806810      0.547290
  N       0.391041      0.754926      0.803822
  H       1.503916     -0.945066      1.221115
  H       2.325097      0.562948      1.593913
  H       2.979422     -0.870792     -0.641731
  H       3.019161      0.912228     -0.664927
  H       0.513397     -1.638870     -0.934406
  H      -0.361974     -0.695143     -2.155941
  H      -1.652904      2.028077     -0.160837
  H      -1.841249      1.058921     -1.645836
  H      -3.404196     -0.229402     -0.399252
  H      -1.487050     -0.923413      1.629299
  H      -1.700392     -1.798151      0.080858
  H       0.521644      1.716553      0.504569
21
Coordinates from ORCA-job file E -420.735089581431
  C       1.681795      0.070630      0.855492
  C       2.372444      0.060231     -0.526088
  O       1.411464      0.105869     -1.580523
  C       0.251504     -0.633291     -1.243445
  C      -0.530649      0.077070     -0.125330
  C      -1.690416      1.002426     -0.569929
  N      -2.656583      0.196866      0.213351
  C      -1.616688     -0.810608      0.535937
  N       0.383645      0.735182      0.809731
  H       1.520008     -0.953932      1.212180
  H       2.320221      0.562271      1.596849
  H       3.011094     -0.830849     -0.639856
  H       2.994341      0.951781     -0.659919
  H       0.529290     -1.652376     -0.922908
  H      -0.350927     -0.724618     -2.152199
  H      -1.616020      2.037435     -0.214503
  H      -1.849995      1.013424     -1.656462
  H      -3.435604     -0.161325     -0.325824
  H      -1.484641     -0.967582      1.611198
  H      -1.747212     -1.782210      0.036358
  H       0.503030      1.703706      0.530090
21
Coordinates from ORCA-job file E -420.735223360274
  C       1.675035      0.072282      0.860090
  C       2.376756      0.065412     -0.516027
  O       1.425675      0.104294     -1.578988
  C       0.263839     -0.636420     -1.252296
  C      -0.529146      0.069270     -0.139223
  C      -1.690766      0.994303     -0.579614
  N      -2.638121      0.224569      0.258524
  C      -1.615942     -0.815516      0.524449
  N       0.374052      0.729977      0.804404
  H       1.517559     -0.952125      1.219513
  H       2.305204      0.571417      1.603587
  H       3.020584     -0.822875     -0.622958
  H       2.996666      0.959069     -0.644439
  H       0.538344     -1.657417     -0.934977
  H      -0.330789     -0.721764     -2.166834
  H      -1.596019      2.042439     -0.270272
  H      -1.884322      0.960034     -1.660273
  H      -3.460201     -0.107253     -0.231694
  H      -1.458842     -1.015334      1.589427
  H      -1.780418     -1.764466     -0.008440
  H       0.490949      1.700204      0.530241
21
Coordinates from ORCA-job file E -420.735332925879
  C       1.663200      0.075907      0.866859
  C       2.381546      0.062231     -0.501319
  O       1.443484      0.111651     -1.574773
  C       0.276786     -0.629817     -1.266789
  C      -0.527480      0.067270     -0.156257
  C      -1.697992      0.984523     -0.588018
  N      -2.615976      0.244329      0.306158
  C      -1.606959     -0.820381      0.514285
  N       0.364344      0.735661      0.792470
  H       1.499486     -0.946225      1.230365
  H       2.285057      0.578965      1.614723
  H       3.015734     -0.833888     -0.601023
  H       3.013630      0.948189     -0.622653
  H       0.546214     -1.654364     -0.956306
  H      -0.307155     -0.704324     -2.189109
  H      -1.591071      2.044135     -0.325144
  H      -1.927829      0.905168     -1.659474
  H      -3.476320     -0.065342     -0.130490
  H      -1.422942     -1.060316      1.566784
  H      -1.801372     -1.746843     -0.047976
  H       0.485715      1.703571      0.511889
21
Coordinates from ORCA-job file E -420.735393765487
  C       1.646223      0.082719      0.876431
  C       2.385486      0.048243     -0.481794
  O       1.464644      0.129522     -1.567407
  C       0.289449     -0.611125     -1.288885
  C      -0.524834      0.071533     -0.175690
  C      -1.712107      0.972947     -0.593063
  N      -2.592909      0.252200      0.351342
  C      -1.588631     -0.824007      0.508195
  N       0.355010      0.753749      0.773811
  H       1.465962     -0.933783      1.248324
  H       2.260458      0.588568      1.628757
  H       2.990443     -0.868803     -0.574288
  H       3.048636      0.912284     -0.593019
  H       0.550627     -1.642509     -0.993857
  H      -0.281289     -0.665047     -2.220892
  H      -1.603043      2.041874     -0.371786
  H      -1.979402      0.850552     -1.652007
  H      -3.482010     -0.045755     -0.034064
  H      -1.375432     -1.094652      1.548003
  H      -1.807582     -1.731894     -0.075416
  H       0.490400      1.713482      0.471505
21
Coordinates from ORCA-job file E -420.735404283252
  C       1.638746      0.086822      0.880061
  C       2.387258      0.038516     -0.472763
  O       1.474303      0.134486     -1.564030
  C       0.292635     -0.600506     -1.298091
  C      -0.524853      0.077692     -0.183377
  C      -1.721121      0.969879     -0.594669
  N      -2.584441      0.250229      0.367670
  C      -1.577219     -0.826403      0.506234
  N       0.353106      0.766216      0.763506
  H       1.446569     -0.926850      1.253508
  H       2.250926      0.589400      1.636127
  H       2.978242     -0.887958     -0.561339
  H       3.063794      0.892420     -0.581416
  H       0.547053     -1.634845     -1.007286
  H      -0.272744     -0.646740     -2.233598
  H      -1.617450      2.041426     -0.384861
  H      -1.995994      0.837116     -1.650807
  H      -3.482149     -0.045382      0.001907
  H      -1.355700     -1.106204      1.541611
  H      -1.797145     -1.730305     -0.083527
  H       0.496285      1.721090      0.449341
21
Coordinates from ORCA-job file E -420.735393488904
  C       1.629645      0.094469      0.885550
  C       2.385282      0.015696     -0.463478
  O       1.482376      0.149785     -1.558553
  C       0.291172     -0.577311     -1.312009
  C      -0.523320      0.091676     -0.187485
  C      -1.734641      0.968337     -0.587463
  N      -2.589408      0.225269      0.364133
  C      -1.556966     -0.824888      0.514243
  N       0.354861      0.791686      0.749965
  H       1.418102     -0.910993      1.270724
  H       2.243816      0.597610      1.639628
  H       2.936594     -0.935276     -0.549736
  H       3.098051      0.839769     -0.568461
  H       0.535192     -1.618749     -1.037659
  H      -0.269475     -0.602280     -2.251257
  H      -1.646143      2.038112     -0.362211
  H      -2.009700      0.844385     -1.644512
  H      -3.473948     -0.094518     -0.013842
  H      -1.328340     -1.085477      1.553301
  H      -1.759860     -1.740805     -0.062588
  H       0.516808      1.733602      0.405909
21
Coordinates from ORCA-job file E -420.735412372556
  C       1.637480      0.089645      0.881513
  C       2.385987      0.029001     -0.471297
  O       1.475171      0.137970     -1.562914
  C       0.289187     -0.591936     -1.301772
  C      -0.524539      0.084155     -0.182032
  C      -1.725830      0.971321     -0.590024
  N      -2.591728      0.235026      0.356512
  C      -1.570184     -0.824918      0.511586
  N       0.355559      0.776016      0.760319
  H       1.438806     -0.920794      1.260258
  H       2.252109      0.592729      1.635263
  H       2.962708     -0.906531     -0.559074
  H       3.075696      0.872216     -0.579981
  H       0.538673     -1.629306     -1.017454
  H      -0.276225     -0.629623     -2.237678
  H      -1.629920      2.040358     -0.363750
  H      -1.994542      0.851410     -1.649063
  H      -3.478653     -0.074932     -0.023996
  H      -1.349774     -1.088425      1.551656
  H      -1.776482     -1.738833     -0.067128
  H       0.506602      1.725550      0.433255
21
Coordinates from ORCA-job file E -420.735412902939
  C       1.636333      0.089385      0.881796
  C       2.386036      0.029239     -0.470429
  O       1.475963      0.138929     -1.562534
  C       0.290137     -0.591643     -1.302385
  C      -0.524402      0.083960     -0.183003
  C      -1.726148      0.970649     -0.590535
  N      -2.590107      0.236365      0.359281
  C      -1.569695     -0.825131      0.511048
  N       0.354950      0.776588      0.759440
  H       1.436713     -0.921005      1.260233
  H       2.250565      0.592130      1.636097
  H       2.962416     -0.906523     -0.558115
  H       3.076209      0.872158     -0.578255
  H       0.539748     -1.629081     -1.018386
  H      -0.274651     -0.628912     -2.238698
  H      -1.629703      2.040146     -0.366857
  H      -1.996894      0.848263     -1.648798
  H      -3.478927     -0.072299     -0.017794
  H      -1.347743     -1.090688      1.550255
  H      -1.777746     -1.737875     -0.068976
  H       0.507046      1.725447      0.430815
