10
Coordinates from ORCA-job file E -155.662218594359
  C      -0.008100     -1.252300     -0.639200
  C       1.066900     -0.261200     -0.230600
  C       0.004300      0.662900      0.338300
  C      -1.070700     -0.329100     -0.070600
  H       1.589200      0.171500     -1.110800
  H       1.740300     -0.676800      0.549500
  H       0.083200      0.777500      1.441700
  H      -0.067800      1.624400     -0.215800
  H      -1.744300      0.065700     -0.861400
  H      -1.593100     -0.782700      0.799000
10
Coordinates from ORCA-job file E -155.668819301971
  C      -0.008282     -1.264394     -0.645269
  C       1.051450     -0.260204     -0.228401
  C       0.004532      0.705248      0.359958
  C      -1.055294     -0.326961     -0.071095
  H       1.592896      0.127332     -1.106987
  H       1.740645     -0.699770      0.511137
  H       0.081781      0.838535      1.447629
  H      -0.065513      1.664720     -0.170365
  H      -1.744989      0.021475     -0.857217
  H      -1.597327     -0.806081      0.760709
10
Coordinates from ORCA-job file E -155.670613286197
  C      -0.008293     -1.260844     -0.643408
  C       1.042750     -0.257535     -0.225964
  C       0.004584      0.726355      0.370756
  C      -1.046525     -0.323393     -0.070414
  H       1.608275      0.095111     -1.105252
  H       1.753555     -0.715483      0.482542
  H       0.080822      0.877746      1.452895
  H      -0.064390      1.691921     -0.141771
  H      -1.758298     -0.010564     -0.853017
  H      -1.612580     -0.823413      0.733732
10
Coordinates from ORCA-job file E -155.670999718121
  C      -0.008260     -1.255686     -0.641023
  C       1.040504     -0.256286     -0.225043
  C       0.004568      0.727737      0.371303
  C      -1.044193     -0.321737     -0.070199
  H       1.621271      0.083776     -1.101016
  H       1.764798     -0.716985      0.470002
  H       0.080408      0.888028      1.453642
  H      -0.064188      1.698972     -0.133498
  H      -1.770162     -0.021813     -0.846733
  H      -1.624847     -0.826106      0.722665
10
Coordinates from ORCA-job file E -155.671108885418
  C      -0.008235     -1.253547     -0.640186
  C       1.039988     -0.256171     -0.224898
  C       0.004569      0.723453      0.368883
  C      -1.043614     -0.321384     -0.070501
  H       1.629928      0.082100     -1.096410
  H       1.772268     -0.713041      0.465561
  H       0.080138      0.887258      1.451811
  H      -0.064142      1.697633     -0.132603
  H      -1.778338     -0.023498     -0.840703
  H      -1.632663     -0.822902      0.719146
10
Coordinates from ORCA-job file E -155.671123527899
  C      -0.008234     -1.254394     -0.640837
  C       1.039943     -0.256699     -0.225108
  C       0.004585      0.720866      0.367375
  C      -1.043552     -0.321807     -0.070974
  H       1.632075      0.083915     -1.094367
  H       1.773971     -0.710042      0.465983
  H       0.080018      0.884463      1.450599
  H      -0.064097      1.695375     -0.134034
  H      -1.780595     -0.021637     -0.838203
  H      -1.634215     -0.820140      0.719666
10
Coordinates from ORCA-job file E -155.671125949162
  C      -0.008239     -1.255262     -0.641559
  C       1.039894     -0.257161     -0.225255
  C       0.004595      0.720194      0.366871
  C      -1.043496     -0.322174     -0.071363
  H       1.632521      0.084957     -1.093554
  H       1.774118     -0.708826      0.466659
  H       0.079906      0.883215      1.450158
  H      -0.064014      1.694493     -0.134882
  H      -1.781298     -0.020485     -0.837195
  H      -1.634087     -0.819052      0.720219
