10
Coordinates from ORCA-job file
  C   -0.00823933894506     -1.25526235924789     -0.64155891650021
  C   1.03989384950752     -0.25716060713420     -0.22525520218404
  C   0.00459459976979      0.72019415253518      0.36687075809519
  C   -1.04349592225059     -0.32217400203659     -0.07136291662022
  H   1.63252108803263      0.08495729988659     -1.09355407504744
  H   1.77411833609645     -0.70882553735091      0.46665930647750
  H   0.07990647423449      0.88321493328528      1.45015834702053
  H   -0.06401398278630      1.69449323583109     -0.13488190216277
  H   -1.78129797399263     -0.02048540332345     -0.83719486510423
  H   -1.63408712966632     -0.81905171244511      0.72021946602569
