35
Coordinates from ORCA-job file E -1203.976761831756
  C      -4.080100     -2.130900      0.950400
  O      -3.627300     -1.095800      0.083600
  C      -2.437100     -0.373900      0.261500
  C      -1.565400     -0.611200      1.338600
  C      -0.380600      0.135300      1.477700
  O       0.507200     -0.072800      2.546000
  C       0.334800     -1.053500      3.563600
  C      -0.069400      1.119300      0.524100
  S       1.453300      2.067900      0.682200
  C       2.403900      0.899200     -0.292400
  C       3.058800     -0.169700      0.333800
  C       3.794900     -1.083200     -0.427400
  C       3.883800     -0.927700     -1.814200
  C       3.239300      0.143700     -2.440500
  C       2.502700      1.058300     -1.681100
  C      -0.939800      1.371600     -0.549400
  O      -0.602500      2.375800     -1.471300
  C      -1.375000      2.713600     -2.618400
  C      -2.119600      0.615700     -0.672400
  H      -3.341200     -2.959500      0.974400
  H      -5.044300     -2.526000      0.570100
  H      -4.239400     -1.729800      1.973600
  H      -1.808700     -1.371700      2.065300
  H       1.190800     -0.999300      4.266800
  H      -0.601400     -0.858100      4.127900
  H       0.308000     -2.068700      3.114500
  H       2.998100     -0.294700      1.407100
  H       4.297000     -1.910400      0.057400
  H       4.453800     -1.635000     -2.402600
  H       3.311500      0.265800     -3.513500
  H       2.010000      1.887000     -2.172800
  H      -2.382500      3.064900     -2.310600
  H      -1.463800      1.834300     -3.290800
  H      -0.866600      3.531300     -3.168900
  H      -2.803300      0.788300     -1.492400
35
Coordinates from ORCA-job file E -1203.996502725296
  C      -4.000861     -2.012266      1.022508
  O      -3.616457     -1.019022      0.098651
  C      -2.455109     -0.343520      0.279152
  C      -1.604994     -0.598295      1.358634
  C      -0.415764      0.126925      1.483858
  O       0.439581     -0.091691      2.510744
  C       0.143998     -1.084805      3.466487
  C      -0.070290      1.098715      0.535787
  S       1.470390      2.008619      0.683917
  C       2.462544      0.887808     -0.309264
  C       3.130649     -0.181398      0.296229
  C       3.888703     -1.059939     -0.480594
  C       3.985844     -0.869463     -1.860574
  C       3.326415      0.203700     -2.463809
  C       2.567846      1.084172     -1.689917
  C      -0.941757      1.349015     -0.533829
  O      -0.587109      2.297553     -1.432403
  C      -1.421033      2.560895     -2.538472
  C      -2.129890      0.627045     -0.665769
  H      -3.256258     -2.824276      1.057406
  H      -4.959024     -2.420825      0.682572
  H      -4.131244     -1.580999      2.028654
  H      -1.864383     -1.357860      2.095752
  H       0.969602     -1.098899      4.186547
  H      -0.792349     -0.849650      3.998088
  H       0.065779     -2.075459      2.989522
  H       3.053433     -0.333008      1.373526
  H       4.405577     -1.895588     -0.006940
  H       4.578457     -1.556413     -2.466495
  H       3.403425      0.355731     -3.541205
  H       2.050766      1.919882     -2.163132
  H      -2.410331      2.915308     -2.206282
  H      -1.535477      1.661828     -3.165398
  H      -0.938672      3.348719     -3.127525
  H      -2.812109      0.807562     -1.496523
35
Coordinates from ORCA-job file E -1203.997316075059
  C      -4.091760     -1.954273      1.042795
  O      -3.627117     -1.023412      0.092896
  C      -2.464521     -0.388250      0.320321
  C      -1.683306     -0.619370      1.457606
  C      -0.471635      0.070652      1.604927
  O       0.331499     -0.116393      2.664761
  C      -0.060515     -1.026296      3.666864
  C      -0.043989      0.987792      0.631443
  S       1.509033      1.851052      0.811769
  C       2.491043      0.869397     -0.328346
  C       3.217830     -0.229486      0.139226
  C       3.969799     -0.996513     -0.751928
  C       3.999698     -0.667168     -2.108105
  C       3.279470      0.434775     -2.572609
  C       2.527423      1.205483     -1.684929
  C      -0.857218      1.215262     -0.494342
  O      -0.411128      2.102630     -1.397600
  C      -1.183326      2.351192     -2.550081
  C      -2.062104      0.526274     -0.655742
  H      -3.381719     -2.786449      1.165529
  H      -5.039874     -2.344476      0.659427
  H      -4.266610     -1.473803      2.017825
  H      -2.004591     -1.330332      2.211986
  H       0.747417     -1.041125      4.405211
  H      -0.991436     -0.703143      4.156861
  H      -0.193091     -2.038581      3.255719
  H       3.187958     -0.486731      1.199579
  H       4.535649     -1.854727     -0.384135
  H       4.589357     -1.267137     -2.804083
  H       3.303539      0.696740     -3.632274
  H       1.956770      2.063107     -2.045875
  H      -2.172144      2.755425     -2.285258
  H      -1.306283      1.438015     -3.151805
  H      -0.635210      3.097006     -3.134415
  H      -2.699006      0.682964     -1.523320
35
Coordinates from ORCA-job file E -1203.997779377500
  C      -4.066686     -1.989610      1.073175
  O      -3.666825     -1.016337      0.135153
  C      -2.507911     -0.375610      0.334409
  C      -1.673801     -0.612439      1.432956
  C      -0.461532      0.092555      1.529292
  O       0.400266     -0.089929      2.536030
  C       0.073994     -1.018411      3.545851
  C      -0.089671      1.030282      0.546869
  S       1.455825      1.899427      0.664257
  C       2.498695      0.862578     -0.369547
  C       3.084040     -0.287678      0.167082
  C       3.889402     -1.096959     -0.634585
  C       4.114425     -0.759329     -1.969643
  C       3.538889      0.395535     -2.501065
  C       2.735754      1.210682     -1.703104
  C      -0.968409      1.267307     -0.535190
  O      -0.575971      2.182709     -1.426679
  C      -1.408365      2.444995     -2.534627
  C      -2.170260      0.563876     -0.648080
  H      -3.340569     -2.814032      1.131471
  H      -5.026582     -2.377062      0.717490
  H      -4.198375     -1.554284      2.074995
  H      -1.949518     -1.334440      2.190563
  H       0.923998     -1.021755      4.235165
  H      -0.834601     -0.720641      4.089600
  H      -0.064901     -2.029165      3.135338
  H       2.896501     -0.548383      1.211157
  H       4.342985     -1.996406     -0.212276
  H       4.745263     -1.393944     -2.595716
  H       3.717080      0.666668     -3.544150
  H       2.278344      2.112649     -2.110810
  H      -2.394434      2.814313     -2.217105
  H      -1.539788      1.550391     -3.160752
  H      -0.899717      3.222483     -3.113500
  H      -2.857644      0.720064     -1.474124
35
Coordinates from ORCA-job file E -1203.998396331240
  C      -4.092829     -1.981137      1.111727
  O      -3.653316     -1.042715      0.153964
  C      -2.488579     -0.399153      0.358197
  C      -1.685233     -0.605104      1.483907
  C      -0.472101      0.094275      1.591280
  O       0.360615     -0.069764      2.634235
  C       0.012900     -0.982680      3.652847
  C      -0.069172      0.998699      0.590405
  S       1.474622      1.868414      0.723905
  C       2.488853      0.878048     -0.379546
  C       2.984028     -0.356645      0.051873
  C       3.772367     -1.127086     -0.803387
  C       4.074217     -0.664309     -2.085303
  C       3.587307      0.572400     -2.511483
  C       2.796519      1.346166     -1.660990
  C      -0.913890      1.203470     -0.524507
  O      -0.491207      2.084493     -1.446479
  C      -1.294485      2.320904     -2.582993
  C      -2.116272      0.504580     -0.644708
  H      -3.373164     -2.807288      1.220898
  H      -5.045125     -2.376596      0.742416
  H      -4.251240     -1.508065      2.093284
  H      -1.987239     -1.301809      2.258941
  H       0.838589     -0.965951      4.372110
  H      -0.917928     -0.683680      4.158979
  H      -0.101521     -2.002531      3.254727
  H       2.739509     -0.711758      1.054852
  H       4.153661     -2.092427     -0.465170
  H       4.691366     -1.268020     -2.753073
  H       3.823491      0.938465     -3.512521
  H       2.408797      2.312193     -1.986365
  H      -2.283154      2.711864     -2.297765
  H      -1.423547      1.405009     -3.179747
  H      -0.766079      3.072430     -3.179354
  H      -2.780859      0.635408     -1.495256
35
Coordinates from ORCA-job file E -1203.998837976710
  C      -4.076212     -1.998230      1.150505
  O      -3.622382     -1.078761      0.180468
  C      -2.460575     -0.425060      0.389996
  C      -1.689357     -0.592363      1.542100
  C      -0.478217      0.107000      1.657702
  O       0.322044     -0.025854      2.734557
  C      -0.055448     -0.908325      3.769938
  C      -0.046553      0.973994      0.637522
  S       1.493300      1.845104      0.774913
  C       2.468938      0.902560     -0.399019
  C       2.784617     -0.433373     -0.127471
  C       3.544243     -1.167363     -1.037754
  C       4.001955     -0.566899     -2.212659
  C       3.693344      0.768091     -2.478829
  C       2.921543      1.503434     -1.577232
  C      -0.856657      1.137332     -0.508404
  O      -0.399438      1.973981     -1.459030
  C      -1.172269      2.168911     -2.624858
  C      -2.057277      0.439595     -0.634662
  H      -3.350588     -2.814987      1.292478
  H      -5.018730     -2.410598      0.773953
  H      -4.255599     -1.502532      2.117840
  H      -2.015374     -1.261242      2.334021
  H       0.747007     -0.870877      4.514599
  H      -1.002101     -0.594271      4.236776
  H      -0.158329     -1.939236      3.396067
  H       2.425802     -0.890610      0.796497
  H       3.786576     -2.209603     -0.823876
  H       4.599387     -1.141510     -2.922106
  H       4.046306      1.238590     -3.398029
  H       2.663230      2.543537     -1.783412
  H      -2.165530      2.575724     -2.378094
  H      -1.293572      1.228035     -3.184196
  H      -0.626669      2.891693     -3.241005
  H      -2.697516      0.534214     -1.509397
35
Coordinates from ORCA-job file E -1203.999180770057
  C      -4.060098     -2.017202      1.188224
  O      -3.594989     -1.115433      0.206921
  C      -2.436854     -0.454308      0.419603
  C      -1.691036     -0.585006      1.592201
  C      -0.483309      0.119275      1.711865
  O       0.294146      0.020248      2.810206
  C      -0.101000     -0.835767      3.861257
  C      -0.030604      0.952786      0.675566
  S       1.504170      1.827160      0.811171
  C       2.447858      0.927764     -0.416692
  C       2.575658     -0.462843     -0.318460
  C       3.307915     -1.162915     -1.275483
  C       3.931918     -0.475867     -2.320271
  C       3.811868      0.911177     -2.411320
  C       3.061516      1.615096     -1.466543
  C      -0.813011      1.076907     -0.493920
  O      -0.322810      1.870014     -1.465929
  C      -1.066448      2.025132     -2.656571
  C      -2.010605      0.376534     -0.623875
  H      -3.328998     -2.823234      1.361049
  H      -4.992177     -2.445822      0.804269
  H      -4.260732     -1.502158      2.141118
  H      -2.033586     -1.229242      2.397710
  H       0.679851     -0.766606      4.626096
  H      -1.063490     -0.517792      4.291541
  H      -0.183458     -1.878025      3.514649
  H       2.091852     -0.985864      0.509603
  H       3.400874     -2.247417     -1.198834
  H       4.508920     -1.024723     -3.066110
  H       4.291118      1.448705     -3.231203
  H       2.941564      2.697813     -1.543657
  H      -2.059583      2.454145     -2.450080
  H      -1.188937      1.061357     -3.175323
  H      -0.497475      2.712034     -3.292007
  H      -2.630129      0.434181     -1.516871
35
Coordinates from ORCA-job file E -1203.999636454316
  C      -4.059345     -2.030196      1.243380
  O      -3.599530     -1.141614      0.248004
  C      -2.440257     -0.480910      0.447495
  C      -1.696520     -0.586670      1.623777
  C      -0.489385      0.122014      1.729257
  O       0.288340      0.051277      2.828027
  C      -0.107942     -0.776758      3.900852
  C      -0.034137      0.928945      0.675796
  S       1.491104      1.815526      0.795422
  C       2.432036      0.943967     -0.449335
  C       2.393132     -0.454361     -0.513429
  C       3.138679     -1.126263     -1.478936
  C       3.945043     -0.408200     -2.367543
  C       3.992190      0.983158     -2.293288
  C       3.224838      1.663722     -1.344323
  C      -0.814118      1.026745     -0.498959
  O      -0.312342      1.790364     -1.486395
  C      -1.052017      1.922891     -2.681807
  C      -2.011573      0.325141     -0.615502
  H      -3.322770     -2.828062      1.428853
  H      -4.988533     -2.469294      0.865357
  H      -4.263679     -1.502333      2.187973
  H      -2.039125     -1.212475      2.442957
  H       0.666528     -0.676738      4.668273
  H      -1.075439     -0.452555      4.314116
  H      -0.180990     -1.829318      3.585507
  H       1.771234     -1.002645      0.198607
  H       3.099670     -2.215668     -1.530767
  H       4.531337     -0.936024     -3.121630
  H       4.613735      1.546491     -2.991464
  H       3.228244      2.755685     -1.302701
  H      -2.036445      2.378270     -2.492242
  H      -1.194763      0.944806     -3.166954
  H      -0.466620      2.574568     -3.338451
  H      -2.630679      0.356614     -1.510026
35
Coordinates from ORCA-job file E -1204.000225692921
  C      -4.104937     -2.009054      1.319093
  O      -3.639765     -1.143920      0.306067
  C      -2.468731     -0.505270      0.486035
  C      -1.720126     -0.596418      1.661154
  C      -0.502728      0.100171      1.743940
  O       0.279370      0.054971      2.836692
  C      -0.131348     -0.721029      3.942381
  C      -0.040568      0.874407      0.670059
  S       1.486259      1.756749      0.772967
  C       2.442333      0.937033     -0.492786
  C       2.297323     -0.435075     -0.736704
  C       3.074061     -1.052199     -1.713377
  C       4.016382     -0.312730     -2.435392
  C       4.171014      1.047673     -2.178082
  C       3.379382      1.677894     -1.214338
  C      -0.828543      0.959602     -0.503112
  O      -0.323372      1.701528     -1.500751
  C      -1.054337      1.800780     -2.704225
  C      -2.034933      0.270741     -0.598916
  H      -3.378873     -2.813352      1.514471
  H      -5.041522     -2.440142      0.951090
  H      -4.298906     -1.463980      2.255487
  H      -2.066005     -1.196287      2.496654
  H       0.642848     -0.595712      4.705924
  H      -1.094531     -0.365775      4.338957
  H      -0.218370     -1.785278      3.675144
  H       1.570720     -1.006418     -0.154275
  H       2.949380     -2.119364     -1.907502
  H       4.623823     -0.798721     -3.201135
  H       4.900836      1.631256     -2.742564
  H       3.471250      2.751610     -1.033721
  H      -2.041422      2.258030     -2.537112
  H      -1.190771      0.810275     -3.164365
  H      -0.461969      2.435036     -3.371174
  H      -2.663328      0.293069     -1.486683
35
Coordinates from ORCA-job file E -1204.000674312987
  C      -4.124620     -2.009309      1.402403
  O      -3.681588     -1.161684      0.364819
  C      -2.508390     -0.522927      0.508165
  C      -1.725170     -0.606160      1.662044
  C      -0.507156      0.094598      1.704937
  O       0.307610      0.061102      2.770425
  C      -0.083755     -0.678875      3.907262
  C      -0.079363      0.865715      0.614027
  S       1.440879      1.761313      0.682459
  C       2.447416      0.931923     -0.532515
  C       2.220275     -0.394899     -0.922909
  C       3.063079     -0.998468     -1.852043
  C       4.146364     -0.295914     -2.388768
  C       4.375759      1.019102     -1.990375
  C       3.527600      1.637415     -1.069041
  C      -0.903952      0.945574     -0.535727
  O      -0.434807      1.693626     -1.543130
  C      -1.180497      1.764189     -2.739117
  C      -2.107501      0.247121     -0.595132
  H      -3.390970     -2.804597      1.604026
  H      -5.062924     -2.453686      1.055042
  H      -4.311965     -1.446454      2.329413
  H      -2.041911     -1.203545      2.510055
  H       0.710625     -0.540437      4.647529
  H      -1.032171     -0.301771      4.318828
  H      -0.188189     -1.749405      3.674515
  H       1.380620     -0.945559     -0.494248
  H       2.875464     -2.030124     -2.157254
  H       4.804465     -0.773429     -3.116934
  H       5.216929      1.577963     -2.405602
  H       3.692471      2.677461     -0.777617
  H      -2.176464      2.199089     -2.567189
  H      -1.296259      0.767399     -3.190920
  H      -0.608572      2.407376     -3.415272
  H      -2.763432      0.266378     -1.462257
35
Coordinates from ORCA-job file E -1204.000859693990
  C      -4.138324     -2.006392      1.486874
  O      -3.714618     -1.177086      0.425757
  C      -2.538599     -0.535943      0.531577
  C      -1.726250     -0.606478      1.666476
  C      -0.508184      0.095024      1.672241
  O       0.332552      0.071082      2.717406
  C      -0.038664     -0.640149      3.879303
  C      -0.110935      0.860377      0.563231
  S       1.402512      1.769056      0.603682
  C       2.442677      0.937006     -0.576313
  C       2.149406     -0.314553     -1.133777
  C       3.049757     -0.909466     -2.015137
  C       4.250389     -0.276147     -2.344979
  C       4.539830      0.968292     -1.786997
  C       3.642453      1.577084     -0.909396
  C      -0.962006      0.924584     -0.567748
  O      -0.522515      1.664337     -1.594653
  C      -1.285830      1.707966     -2.781176
  C      -2.164617      0.221662     -0.590189
  H      -3.402935     -2.800046      1.688512
  H      -5.083697     -2.456040      1.165228
  H      -4.308770     -1.425186      2.406231
  H      -2.020806     -1.195558      2.528850
  H       0.769136     -0.488538      4.602882
  H      -0.978512     -0.250748      4.299998
  H      -0.149474     -1.715914      3.674649
  H       1.217536     -0.820035     -0.875784
  H       2.811569     -1.884289     -2.446011
  H       4.952618     -0.749721     -3.032782
  H       5.473031      1.477249     -2.036146
  H       3.871545      2.557161     -0.485180
  H      -2.281110      2.142308     -2.602941
  H      -1.402016      0.702521     -3.214027
  H      -0.727442      2.342420     -3.477169
  H      -2.839809      0.234261     -1.442594
35
Coordinates from ORCA-job file E -1204.000832810476
  C      -4.162944     -1.972374      1.562428
  O      -3.753293     -1.167997      0.475857
  C      -2.565049     -0.537187      0.535811
  C      -1.718481     -0.610511      1.645310
  C      -0.497933      0.082183      1.615958
  O       0.370185      0.050637      2.641766
  C       0.026778     -0.652372      3.816993
  C      -0.135336      0.854820      0.496017
  S       1.359517      1.795908      0.527618
  C       2.444408      0.933085     -0.583654
  C       2.149688     -0.276845     -1.219572
  C       3.099334     -0.869921     -2.054966
  C       4.341122     -0.271755     -2.267452
  C       4.628014      0.941962     -1.638001
  C       3.689222      1.543859     -0.805029
  C      -1.009769      0.909729     -0.612335
  O      -0.601733      1.642822     -1.660591
  C      -1.400268      1.685236     -2.824865
  C      -2.216847      0.212558     -0.597340
  H      -3.443267     -2.784389      1.749572
  H      -5.130453     -2.403011      1.282092
  H      -4.284795     -1.370740      2.477164
  H      -1.995602     -1.193817      2.519219
  H       0.849399     -0.502030      4.524608
  H      -0.904530     -0.260721      4.255502
  H      -0.087961     -1.729528      3.619389
  H       1.184592     -0.762087     -1.065428
  H       2.861791     -1.817118     -2.543160
  H       5.077893     -0.744027     -2.918076
  H       5.592329      1.428757     -1.793581
  H       3.927409      2.490161     -0.314941
  H      -2.381710      2.139592     -2.618401
  H      -1.544828      0.677299     -3.244421
  H      -0.858240      2.305639     -3.546706
  H      -2.908743      0.232282     -1.436886
35
Coordinates from ORCA-job file E -1204.000943200454
  C      -4.164891     -1.966089      1.574726
  O      -3.753043     -1.173450      0.481108
  C      -2.563787     -0.547174      0.540098
  C      -1.717510     -0.616829      1.650148
  C      -0.498691      0.080022      1.618747
  O       0.370889      0.056332      2.641198
  C       0.027531     -0.637495      3.821593
  C      -0.134746      0.844957      0.496089
  S       1.350951      1.796075      0.520618
  C       2.440444      0.942484     -0.591977
  C       2.127313     -0.240257     -1.269399
  C       3.075948     -0.831166     -2.105883
  C       4.336504     -0.257887     -2.276912
  C       4.644986      0.923470     -1.599474
  C       3.705356      1.524027     -0.765072
  C      -1.009097      0.894172     -0.613669
  O      -0.596095      1.623695     -1.660730
  C      -1.390426      1.658219     -2.827523
  C      -2.215100      0.195702     -0.597586
  H      -3.443917     -2.774239      1.772556
  H      -5.130846     -2.399739      1.295618
  H      -4.288745     -1.356470      2.483184
  H      -1.993157     -1.198564      2.524592
  H       0.851457     -0.479302      4.525200
  H      -0.902760     -0.241918      4.257432
  H      -0.088210     -1.716020      3.633203
  H       1.146266     -0.702578     -1.146392
  H       2.821837     -1.753904     -2.631426
  H       5.071513     -0.725887     -2.933201
  H       5.625858      1.387325     -1.720016
  H       3.954304      2.451053     -0.242702
  H      -2.378228      2.099793     -2.625552
  H      -1.521946      0.649014     -3.246979
  H      -0.851383      2.284032     -3.546197
  H      -2.908678      0.208693     -1.435520
35
Coordinates from ORCA-job file E -1204.000948981039
  C      -4.130435     -1.989800      1.511937
  O      -3.723373     -1.177005      0.432023
  C      -2.542293     -0.536285      0.511231
  C      -1.701872     -0.614329      1.625189
  C      -0.493112      0.100487      1.613452
  O       0.374207      0.066588      2.637358
  C       0.042141     -0.669736      3.794870
  C      -0.129311      0.883273      0.504631
  S       1.344195      1.850718      0.535844
  C       2.434015      0.963028     -0.552541
  C       2.139041     -0.297157     -1.081020
  C       3.055908     -0.927367     -1.923186
  C       4.269208     -0.315113     -2.239268
  C       4.566497      0.938203     -1.699923
  C       3.654010      1.578210     -0.862870
  C      -0.994735      0.933871     -0.611873
  O      -0.573223      1.671804     -1.650331
  C      -1.375284      1.730126     -2.810678
  C      -2.194666      0.224775     -0.613456
  H      -3.404976     -2.798012      1.693293
  H      -5.095682     -2.421342      1.228861
  H      -4.248933     -1.398302      2.432565
  H      -1.975628     -1.216855      2.485408
  H       0.864235     -0.517349      4.501244
  H      -0.895085     -0.304339      4.241072
  H      -0.055758     -1.743446      3.572055
  H       1.193617     -0.784928     -0.834290
  H       2.813310     -1.907265     -2.338790
  H       4.979670     -0.811180     -2.902680
  H       5.515333      1.425812     -1.932908
  H       3.884187      2.563396     -0.448246
  H      -2.362835      2.164172     -2.592599
  H      -1.508898      0.729417     -3.248624
  H      -0.842702      2.370779     -3.520549
  H      -2.880871      0.235251     -1.457300
35
Coordinates from ORCA-job file E -1204.000972939378
  C      -4.135895     -1.984728      1.546046
  O      -3.743796     -1.172901      0.459372
  C      -2.559932     -0.535043      0.516713
  C      -1.700560     -0.613856      1.616232
  C      -0.490207      0.097112      1.582693
  O       0.392201      0.065574      2.593926
  C       0.075226     -0.661945      3.761493
  C      -0.146234      0.882905      0.468356
  S       1.325169      1.854137      0.485688
  C       2.436821      0.955320     -0.569963
  C       2.144053     -0.285467     -1.143334
  C       3.092069     -0.916131     -1.951590
  C       4.332465     -0.324746     -2.190748
  C       4.623585      0.912935     -1.612593
  C       3.682895      1.552747     -0.808977
  C      -1.029991      0.933751     -0.633653
  O      -0.628274      1.671185     -1.680251
  C      -1.453055      1.733487     -2.824816
  C      -2.230643      0.225927     -0.613955
  H      -3.412724     -2.797915      1.713701
  H      -5.108641     -2.410711      1.279920
  H      -4.234935     -1.392517      2.468837
  H      -1.962015     -1.213273      2.482805
  H       0.905235     -0.504755      4.457862
  H      -0.857182     -0.293744      4.216063
  H      -0.024377     -1.737408      3.548205
  H       1.179248     -0.761584     -0.957751
  H       2.853158     -1.883320     -2.398250
  H       5.067590     -0.822743     -2.824843
  H       5.591168      1.387586     -1.786901
  H       3.913566      2.522473     -0.360577
  H      -2.432513      2.176005     -2.587594
  H      -1.602876      0.733185     -3.259143
  H      -0.930394      2.369680     -3.546350
  H      -2.930304      0.238877     -1.446722
35
Coordinates from ORCA-job file E -1204.000788976290
  C      -4.115750     -1.985781      1.586898
  O      -3.769370     -1.164186      0.491671
  C      -2.585246     -0.524493      0.504663
  C      -1.679934     -0.612611      1.566283
  C      -0.477119      0.107160      1.491806
  O       0.446152      0.070986      2.465673
  C       0.182370     -0.669122      3.639000
  C      -0.185835      0.911727      0.374205
  S       1.269122      1.906112      0.356273
  C       2.434582      0.952365     -0.585843
  C       2.166434     -0.296845     -1.151296
  C       3.166949     -0.962920     -1.864879
  C       4.431962     -0.397824     -2.018456
  C       4.695968      0.852206     -1.452747
  C       3.706200      1.525576     -0.743149
  C      -1.110117      0.962839     -0.693795
  O      -0.758547      1.712999     -1.749791
  C      -1.644146      1.800569     -2.846898
  C      -2.306943      0.250534     -0.630160
  H      -3.392465     -2.806839      1.710763
  H      -5.103701     -2.401492      1.363821
  H      -4.163989     -1.402551      2.519664
  H      -1.904322     -1.222477      2.436207
  H       1.036387     -0.509040      4.305207
  H      -0.736436     -0.314639      4.130976
  H       0.086109     -1.743836      3.420533
  H       1.182289     -0.754674     -1.033876
  H       2.948877     -1.939530     -2.301949
  H       5.208506     -0.925205     -2.574328
  H       5.682309      1.307473     -1.559562
  H       3.918104      2.501776     -0.299948
  H      -2.607838      2.239548     -2.546407
  H      -1.819969      0.809967     -3.294011
  H      -1.161139      2.451791     -3.582790
  H      -3.039554      0.270534     -1.433858
35
Coordinates from ORCA-job file E -1204.000874222532
  C      -4.085722     -2.011971      1.561426
  O      -3.749783     -1.179347      0.471348
  C      -2.574527     -0.523431      0.489712
  C      -1.667883     -0.607800      1.550492
  C      -0.473732      0.126622      1.479878
  O       0.451578      0.093933      2.452377
  C       0.202948     -0.665469      3.616917
  C      -0.191723      0.940559      0.366597
  S       1.262738      1.936298      0.341496
  C       2.429828      0.958686     -0.576693
  C       2.159039     -0.311047     -1.093802
  C       3.154230     -1.001460     -1.790933
  C       4.417179     -0.440079     -1.974441
  C       4.683421      0.830564     -1.458593
  C       3.698362      1.528350     -0.765844
  C      -1.118238      0.989214     -0.700287
  O      -0.778858      1.750724     -1.752646
  C      -1.674371      1.843314     -2.841328
  C      -2.307074      0.263466     -0.639344
  H      -3.351558     -2.824035      1.681194
  H      -5.068197     -2.439455      1.335931
  H      -4.142027     -1.435030      2.497726
  H      -1.884399     -1.226992      2.415842
  H       1.058371     -0.502594      4.280687
  H      -0.717833     -0.329798      4.118405
  H       0.119821     -1.738297      3.384135
  H       1.176681     -0.764556     -0.949147
  H       2.935286     -1.994579     -2.188612
  H       5.190858     -0.986530     -2.515692
  H       5.667021      1.283886     -1.594288
  H       3.909413      2.522098     -0.363539
  H      -2.642764      2.259952     -2.524147
  H      -1.837315      0.858052     -3.304978
  H      -1.208741      2.516073     -3.569126
  H      -3.042127      0.280778     -1.440822
35
Coordinates from ORCA-job file E -1204.000926479219
  C      -4.029164     -2.055076      1.527092
  O      -3.717429     -1.206356      0.442764
  C      -2.558586     -0.522052      0.463815
  C      -1.643981     -0.596943      1.518434
  C      -0.466864      0.164313      1.446823
  O       0.468824      0.138608      2.408947
  C       0.256740     -0.652551      3.559273
  C      -0.207685      0.992170      0.338755
  S       1.243007      1.993766      0.292264
  C       2.419421      0.967468     -0.562315
  C       2.140714     -0.325751     -1.014913
  C       3.132389     -1.059333     -1.670173
  C       4.400362     -0.516843     -1.876842
  C       4.674439      0.776455     -1.426133
  C       3.692640      1.517069     -0.773418
  C      -1.144534      1.036227     -0.719146
  O      -0.832969      1.816112     -1.766719
  C      -1.751161      1.913818     -2.835739
  C      -2.316449      0.283130     -0.657208
  H      -3.275098     -2.849704      1.639438
  H      -5.001885     -2.504705      1.302513
  H      -4.097244     -1.486579      2.467738
  H      -1.840135     -1.231227      2.377653
  H       1.121760     -0.486144      4.209431
  H      -0.659994     -0.348387      4.087469
  H       0.191977     -1.721037      3.301985
  H       1.151967     -0.759410     -0.854718
  H       2.906346     -2.068504     -2.020301
  H       5.172350     -1.095151     -2.386609
  H       5.661948      1.214263     -1.583584
  H       3.907795      2.529607     -0.423566
  H      -2.724889      2.289380     -2.485370
  H      -1.893151      0.938138     -3.325759
  H      -1.321900      2.623073     -3.550916
  H      -3.059659      0.292256     -1.451066
35
Coordinates from ORCA-job file E -1204.000944799461
  C      -4.036167     -2.053318      1.528176
  O      -3.716801     -1.208092      0.443466
  C      -2.557694     -0.524559      0.470353
  C      -1.650114     -0.596884      1.531181
  C      -0.471065      0.161863      1.464234
  O       0.458468      0.137314      2.431989
  C       0.236278     -0.647689      3.584236
  C      -0.202404      0.984189      0.354541
  S       1.250541      1.983645      0.313754
  C       2.420710      0.967675     -0.560980
  C       2.136268     -0.316763     -1.034928
  C       3.121742     -1.041204     -1.708597
  C       4.389628     -0.498207     -1.914776
  C       4.670110      0.785578     -1.441379
  C       3.694328      1.517163     -0.769044
  C      -1.132529      1.026586     -0.709005
  O      -0.811063      1.800617     -1.757715
  C      -1.718194      1.893569     -2.836393
  C      -2.306078      0.275428     -0.652202
  H      -3.282049     -2.846479      1.649699
  H      -5.006298     -2.505143      1.296989
  H      -4.113697     -1.481820      2.466197
  H      -1.851929     -1.227736      2.391567
  H       1.099871     -0.484237      4.237006
  H      -0.680151     -0.335931      4.108406
  H       0.166023     -1.716760      3.330873
  H       1.146878     -0.750443     -0.878755
  H       2.890298     -2.043133     -2.075368
  H       5.156122     -1.068810     -2.441266
  H       5.658068      1.223534     -1.596222
  H       3.915586      2.522485     -0.402519
  H      -2.691278      2.284125     -2.501261
  H      -1.865443      0.913147     -3.314997
  H      -1.274149      2.588675     -3.556274
  H      -3.043919      0.281714     -1.451087
35
Coordinates from ORCA-job file E -1204.000944268651
  C      -4.031234     -2.054429      1.531994
  O      -3.719566     -1.205931      0.447638
  C      -2.560640     -0.521999      0.468658
  C      -1.646615     -0.595262      1.524016
  C      -0.468927      0.164959      1.451318
  O       0.466072      0.140638      2.413743
  C       0.253668     -0.648762      3.564665
  C      -0.207961      0.990078      0.341632
  S       1.242952      1.992339      0.294909
  C       2.419026      0.968588     -0.562262
  C       2.135818     -0.316306     -1.035590
  C       3.126376     -1.046257     -1.695738
  C       4.398483     -0.508661     -1.889138
  C       4.677812      0.775654     -1.416295
  C       3.697167      1.512668     -0.757106
  C      -1.143271      1.031776     -0.717095
  O      -0.828979      1.807235     -1.766821
  C      -1.742947      1.900934     -2.839693
  C      -2.316235      0.280022     -0.653936
  H      -3.276929     -2.848593      1.645450
  H      -5.003326     -2.505012      1.306694
  H      -4.101664     -1.485997      2.472427
  H      -1.842775     -1.226866      2.385144
  H       1.121754     -0.485888      4.211627
  H      -0.659351     -0.341141      4.097191
  H       0.184087     -1.717066      3.308024
  H       1.143583     -0.747008     -0.889189
  H       2.895634     -2.049043     -2.060626
  H       5.169076     -1.083704     -2.404670
  H       5.669149      1.209660     -1.560435
  H       3.919089      2.517673     -0.390127
  H      -2.713241      2.293289     -2.498543
  H      -1.894724      0.920622     -3.317025
  H      -1.302479      2.595150     -3.562647
  H      -3.058981      0.286738     -1.448295
35
Coordinates from ORCA-job file E -1204.000949303801
  C      -4.027242     -2.055149      1.533284
  O      -3.718293     -1.207156      0.447801
  C      -2.559969     -0.522039      0.466499
  C      -1.643882     -0.594138      1.520204
  C      -0.467744      0.168115      1.445591
  O       0.468999      0.145084      2.406420
  C       0.262864     -0.649091      3.555029
  C      -0.210432      0.994915      0.336164
  S       1.239261      1.999095      0.287127
  C       2.417769      0.970510     -0.560851
  C       2.132696     -0.313647     -1.035132
  C       3.123999     -1.047568     -1.689689
  C       4.399127     -0.514786     -1.876753
  C       4.680301      0.768776     -1.402955
  C       3.698998      1.509641     -0.748958
  C      -1.147666      1.035568     -0.720744
  O      -0.838434      1.813579     -1.770086
  C      -1.753880      1.903124     -2.842063
  C      -2.319124      0.281493     -0.655687
  H      -3.272041     -2.848517      1.646338
  H      -4.999252     -2.507020      1.310050
  H      -4.097142     -1.486127      2.473432
  H      -1.837069     -1.225901      2.381935
  H       1.133409     -0.486972      4.198933
  H      -0.648351     -0.345905      4.093248
  H       0.194748     -1.716560      3.294534
  H       1.138285     -0.741109     -0.893938
  H       2.891134     -2.049656     -2.055183
  H       5.170108     -1.092421     -2.388753
  H       5.673722      1.199528     -1.542359
  H       3.923677      2.513608     -0.380932
  H      -2.725885      2.290362     -2.499704
  H      -1.901064      0.922426     -3.320043
  H      -1.317640      2.600242     -3.564838
  H      -3.064086      0.287797     -1.448022
