35
Coordinates from ORCA-job file
  C   -4.02724172602746     -2.05514899268927      1.53328366594920
  O   -3.71829287657244     -1.20715601942160      0.44780107021456
  C   -2.55996912124402     -0.52203920056256      0.46649887012719
  C   -1.64388191759093     -0.59413818393020      1.52020438932200
  C   -0.46774364036008      0.16811515781357      1.44559125495915
  O   0.46899946251669      0.14508448915419      2.40642034648796
  C   0.26286350612291     -0.64909102800117      3.55502904157993
  C   -0.21043235883439      0.99491519687894      0.33616435370895
  S   1.23926131425598      1.99909488345725      0.28712668333736
  C   2.41776868955106      0.97050957081918     -0.56085090781549
  C   2.13269613824109     -0.31364686854857     -1.03513174131865
  C   3.12399854016638     -1.04756844540716     -1.68968942883326
  C   4.39912722422622     -0.51478647863381     -1.87675270770835
  C   4.68030069854935      0.76877612495676     -1.40295515471554
  C   3.69899753517519      1.50964056462900     -0.74895814324325
  C   -1.14766558871844      1.03556790147024     -0.72074369429221
  O   -0.83843405394209      1.81357892403114     -1.77008564683462
  C   -1.75388036896973      1.90312434734816     -2.84206315476004
  C   -2.31912411675717      0.28149319060031     -0.65568661364707
  H   -3.27204141419249     -2.84851713814371      1.64633820196963
  H   -4.99925162067543     -2.50702000999449      1.31004993316759
  H   -4.09714177012884     -1.48612737098337      2.47343186888809
  H   -1.83706922576913     -1.22590082619375      2.38193477610765
  H   1.13340945089538     -0.48697217117109      4.19893287262702
  H   -0.64835148189708     -0.34590474535675      4.09324849832236
  H   0.19474834236824     -1.71656017364589      3.29453383095452
  H   1.13828476805395     -0.74110876062694     -0.89393818049151
  H   2.89113353229340     -2.04965609381050     -2.05518316220827
  H   5.17010781468856     -1.09242121677241     -2.38875339003455
  H   5.67372209183362      1.19952837017706     -1.54235919792540
  H   3.92367685455098      2.51360793370394     -0.38093207153254
  H   -2.72588519975554      2.29036190546169     -2.49970379410141
  H   -1.90106386764942      0.92242600481904     -3.32004286953534
  H   -1.31763997394108      2.60024194681227     -3.56483783868023
  H   -3.06408564046322      0.28779721176047     -1.44802196004544
