43
Coordinates from ORCA-job file E -1854.801616632954
  C       3.455700      0.597100     -4.114300
  O       3.613900      0.183600     -2.760900
  C       2.585700      0.178400     -1.805800
  C       2.888400     -0.254600     -0.512800
  C       1.901100     -0.280900      0.488600
  O       2.182500     -0.711400      1.796000
  C       3.458200     -1.156900      2.244100
  C       0.595500      0.135700      0.180200
  S      -0.635500      0.107300      1.443100
  C      -1.828400     -1.174300      1.360700
  C      -1.662700     -2.327200      2.137500
  C      -2.607000     -3.356700      2.074300
  C      -3.720200     -3.236100      1.234700
  Cl     -4.904400     -4.527500      1.155300
  C      -3.887500     -2.083300      0.459000
  C      -2.943600     -1.053500      0.521700
  C      -1.073700      1.594200      2.346400
  C      -1.948300      2.517900      1.532100
  O      -0.935200      3.484300      1.402400
  C      -0.056700      2.698800      2.169200
  C       0.274000      0.568400     -1.118000
  O      -1.043800      0.964700     -1.393300
  C      -1.507400      1.424300     -2.658200
  C       1.275700      0.589600     -2.106300
  H       3.136700      1.660100     -4.154200
  H       4.427700      0.498300     -4.639400
  H       2.708800     -0.046500     -4.625500
  H       3.900900     -0.568800     -0.298900
  H       4.206400     -0.343600      2.135500
  H       3.775600     -2.050100      1.665700
  H       3.388700     -1.434500      3.315700
  H      -0.802900     -2.428600      2.787900
  H      -2.472600     -4.246200      2.676500
  H      -4.747400     -1.984200     -0.191100
  H      -3.085600     -0.165600     -0.079300
  H      -2.797800      2.912900      2.130200
  H      -2.262400      2.125800      0.542500
  H       0.851900      2.428200      1.590000
  H       0.179600      3.197900      3.133900
  H      -0.957900      2.342200     -2.955700
  H      -1.375600      0.631500     -3.424300
  H      -2.587000      1.666600     -2.580400
  H       1.036700      0.922500     -3.105100
43
Coordinates from ORCA-job file E -1854.826266073171
  C       3.334573      0.567435     -4.050063
  O       3.570779      0.153871     -2.719994
  C       2.569387      0.154538     -1.790845
  C       2.897679     -0.269328     -0.501880
  C       1.918689     -0.291177      0.498238
  O       2.196041     -0.697004      1.771195
  C       3.493937     -1.114353      2.139790
  C       0.605057      0.115059      0.208099
  S      -0.615591      0.112208      1.503136
  C      -1.819513     -1.160726      1.362209
  C      -1.679945     -2.314089      2.142410
  C      -2.622096     -3.339200      2.047878
  C      -3.703791     -3.209591      1.171089
  Cl     -4.882601     -4.493774      1.052642
  C      -3.848218     -2.059477      0.388820
  C      -2.905373     -1.034679      0.484380
  C      -1.123604      1.603466      2.359325
  C      -1.965723      2.545392      1.490783
  O      -0.921100      3.516245      1.423131
  C      -0.078097      2.718206      2.248276
  C       0.282689      0.534949     -1.091760
  O      -1.009255      0.911538     -1.329549
  C      -1.424859      1.360177     -2.603162
  C       1.260959      0.558925     -2.093543
  H       3.000454      1.621874     -4.081344
  H       4.283804      0.479456     -4.600000
  H       2.579581     -0.079507     -4.535958
  H       3.920620     -0.577552     -0.295708
  H       4.224705     -0.295077      2.003146
  H       3.805974     -1.997788      1.551107
  H       3.463466     -1.389260      3.204982
  H      -0.835800     -2.413804      2.823526
  H      -2.513011     -4.236627      2.655528
  H      -4.692706     -1.961826     -0.292425
  H      -3.019953     -0.139614     -0.122833
  H      -2.850134      2.946834      2.030831
  H      -2.241508      2.169810      0.486124
  H       0.872405      2.455138      1.737997
  H       0.114258      3.219214      3.220677
  H      -0.871580      2.271243     -2.897305
  H      -1.282987      0.569611     -3.363991
  H      -2.496191      1.602174     -2.536263
  H       1.008680      0.886892     -3.098992
43
Coordinates from ORCA-job file E -1854.837129045361
  C       3.258852      0.532572     -4.033274
  O       3.535995      0.127522     -2.712344
  C       2.550700      0.133709     -1.792059
  C       2.910577     -0.278548     -0.504336
  C       1.948791     -0.299476      0.511254
  O       2.230533     -0.683908      1.769306
  C       3.540690     -1.080613      2.102064
  C       0.622286      0.094063      0.241115
  S      -0.570536      0.112611      1.582580
  C      -1.793905     -1.139979      1.366943
  C      -1.692215     -2.299024      2.143722
  C      -2.638425     -3.314293      2.008624
  C      -3.683739     -3.164734      1.092772
  Cl     -4.866868     -4.434341      0.923517
  C      -3.792330     -2.010339      0.311396
  C      -2.844525     -0.996798      0.449432
  C      -1.163775      1.602192      2.364990
  C      -1.966800      2.541657      1.438639
  O      -0.911419      3.522403      1.427649
  C      -0.110525      2.728226      2.314522
  C       0.280613      0.501559     -1.060128
  O      -1.005566      0.861067     -1.254889
  C      -1.426272      1.307077     -2.524409
  C       1.235589      0.527511     -2.083541
  H       2.914826      1.581821     -4.069885
  H       4.198731      0.447139     -4.594494
  H       2.500616     -0.118076     -4.505081
  H       3.940870     -0.574843     -0.319958
  H       4.262942     -0.259590      1.946419
  H       3.856842     -1.962729      1.516899
  H       3.527037     -1.345384      3.167564
  H      -0.871374     -2.405389      2.854921
  H      -2.564179     -4.219675      2.613124
  H      -4.613506     -1.904837     -0.399658
  H      -2.922145     -0.093926     -0.154565
  H      -2.885037      2.945643      1.912674
  H      -2.194838      2.171400      0.422584
  H       0.878229      2.476130      1.879346
  H       0.029878      3.240326      3.288332
  H      -0.884368      2.219766     -2.827253
  H      -1.291049      0.523775     -3.291257
  H      -2.495152      1.542019     -2.437677
  H       0.964052      0.846111     -3.085883
43
Coordinates from ORCA-job file E -1854.844434755581
  C       3.223557      0.508432     -4.042676
  O       3.514604      0.113339     -2.721520
  C       2.535095      0.120666     -1.796895
  C       2.918659     -0.281454     -0.510801
  C       1.972563     -0.305544      0.519059
  O       2.266615     -0.678114      1.775895
  C       3.585199     -1.057500      2.096597
  C       0.634854      0.073661      0.265905
  S      -0.520949      0.101649      1.659782
  C      -1.768414     -1.123585      1.377839
  C      -1.698389     -2.291687      2.144370
  C      -2.652534     -3.294732      1.978224
  C      -3.673793     -3.120845      1.040554
  Cl     -4.868028     -4.373083      0.831485
  C      -3.752762     -1.957488      0.268926
  C      -2.796499     -0.957420      0.439163
  C      -1.193971      1.586263      2.354919
  C      -1.958417      2.517927      1.383672
  O      -0.906259      3.509726      1.425320
  C      -0.149122      2.726283      2.365629
  C       0.274830      0.474395     -1.034906
  O      -1.015202      0.826246     -1.207778
  C      -1.451227      1.277419     -2.471138
  C       1.213556      0.503144     -2.074533
  H       2.872525      1.554383     -4.088371
  H       4.161888      0.423486     -4.605579
  H       2.466590     -0.146899     -4.508711
  H       3.955707     -0.565857     -0.346343
  H       4.299700     -0.232685      1.929698
  H       3.909869     -1.938968      1.516318
  H       3.579516     -1.313931      3.163671
  H      -0.893529     -2.411222      2.872687
  H      -2.605799     -4.208577      2.573607
  H      -4.558945     -1.837656     -0.457661
  H      -2.847104     -0.046538     -0.154010
  H      -2.904658      2.919161      1.800034
  H      -2.139348      2.151440      0.358717
  H       0.871560      2.490095      2.001995
  H      -0.065282      3.248164      3.340417
  H      -0.919304      2.193774     -2.777882
  H      -1.323713      0.502267     -3.246480
  H      -2.519308      1.506429     -2.365586
  H       0.925769      0.815236     -3.073910
43
Coordinates from ORCA-job file E -1854.849983311158
  C       3.242353      0.467562     -4.062780
  O       3.525387      0.082397     -2.736416
  C       2.537342      0.101752     -1.819010
  C       2.919789     -0.291322     -0.529017
  C       1.972833     -0.307906      0.498702
  O       2.261052     -0.671737      1.760899
  C       3.581538     -1.043481      2.086456
  C       0.629708      0.067942      0.245781
  S      -0.484931      0.105900      1.708546
  C      -1.758290     -1.100148      1.385261
  C      -1.668442     -2.283621      2.126585
  C      -2.619360     -3.290257      1.962028
  C      -3.659967     -3.100775      1.050371
  Cl     -4.853487     -4.354097      0.840091
  C      -3.763049     -1.921495      0.306261
  C      -2.808848     -0.919753      0.475576
  C      -1.226359      1.553070      2.353569
  C      -1.992461      2.505344      1.404811
  O      -0.954711      3.514364      1.501608
  C      -0.208368      2.716603      2.442674
  C       0.278204      0.465390     -1.060793
  O      -1.007989      0.827561     -1.246813
  C      -1.423007      1.286810     -2.515898
  C       1.218575      0.484957     -2.101400
  H       2.893861      1.513478     -4.123922
  H       4.185795      0.373618     -4.615708
  H       2.486112     -0.186601     -4.531512
  H       3.958392     -0.573504     -0.370002
  H       4.296124     -0.219746      1.915457
  H       3.915194     -1.926586      1.514259
  H       3.570091     -1.291392      3.155506
  H      -0.846328     -2.409298      2.834995
  H      -2.558623     -4.216951      2.535938
  H      -4.588935     -1.794289     -0.396563
  H      -2.877448      0.003176     -0.091652
  H      -2.953788      2.879406      1.810812
  H      -2.160216      2.183883      0.365811
  H       0.834135      2.523409      2.118071
  H      -0.160000      3.214281      3.432576
  H      -0.879722      2.198331     -2.815775
  H      -1.295461      0.515391     -3.294318
  H      -2.489948      1.525886     -2.418793
  H       0.933351      0.792249     -3.102573
43
Coordinates from ORCA-job file E -1854.853242857744
  C       3.191200      0.454961     -4.074524
  O       3.499356      0.081243     -2.749767
  C       2.525035      0.093787     -1.809086
  C       2.928562     -0.286448     -0.522741
  C       1.995336     -0.307879      0.516111
  O       2.315224     -0.664759      1.780812
  C       3.646944     -1.014095      2.089163
  C       0.644198      0.048198      0.279887
  S      -0.440054      0.088758      1.781008
  C      -1.731640     -1.086259      1.401337
  C      -1.679042     -2.285368      2.122394
  C      -2.644661     -3.271853      1.921124
  C      -3.663221     -3.046220      0.992832
  Cl     -4.877775     -4.272668      0.733540
  C      -3.727319     -1.850760      0.269901
  C      -2.758443     -0.869822      0.475100
  C      -1.239456      1.530971      2.311452
  C      -1.927300      2.467276      1.302692
  O      -0.921275      3.488437      1.488823
  C      -0.261121      2.710509      2.501917
  C       0.271421      0.436674     -1.018258
  O      -1.026800      0.787351     -1.194629
  C      -1.472112      1.241829     -2.455634
  C       1.198971      0.459576     -2.071461
  H       2.828664      1.497109     -4.133881
  H       4.125169      0.369305     -4.646337
  H       2.433279     -0.211756     -4.524423
  H       3.973007     -0.555347     -0.378320
  H       4.344015     -0.178366      1.900099
  H       3.983809     -1.894789      1.513750
  H       3.660433     -1.257338      3.160182
  H      -0.875051     -2.439806      2.844709
  H      -2.613194     -4.209057      2.478610
  H      -4.535928     -1.695167     -0.445909
  H      -2.799483      0.064218     -0.078030
  H      -2.925509      2.828846      1.624028
  H      -1.999670      2.141703      0.251438
  H       0.812562      2.537322      2.283693
  H      -0.320960      3.212392      3.490311
  H      -0.941515      2.158553     -2.765658
  H      -1.351257      0.469321     -3.235082
  H      -2.540235      1.471290     -2.341107
  H       0.895936      0.757927     -3.070368
43
Coordinates from ORCA-job file E -1854.855827619107
  C       3.223103      0.412704     -4.095764
  O       3.519863      0.052202     -2.764970
  C       2.536139      0.075283     -1.832778
  C       2.925837     -0.291049     -0.538341
  C       1.979503     -0.301023      0.488103
  O       2.286847     -0.646364      1.761753
  C       3.616020     -0.987385      2.089713
  C       0.629659      0.051420      0.237074
  S      -0.445181      0.116562      1.769146
  C      -1.738903     -1.068180      1.396595
  C      -1.622524     -2.295969      2.061130
  C      -2.578260     -3.295056      1.873620
  C      -3.653574     -3.051348      1.016964
  Cl     -4.859234     -4.290869      0.772712
  C      -3.783047     -1.826265      0.354970
  C      -2.822896     -0.833901      0.544758
  C      -1.262443      1.529649      2.287792
  C      -1.903206      2.535697      1.324590
  O      -0.914155      3.539098      1.637670
  C      -0.316277      2.696595      2.636353
  C       0.273273      0.427154     -1.066537
  O      -1.023751      0.772506     -1.270160
  C      -1.450488      1.212724     -2.542111
  C       1.213051      0.436714     -2.110529
  H       2.861108      1.454352     -4.168614
  H       4.161347      0.320963     -4.659776
  H       2.467848     -0.257724     -4.544946
  H       3.968913     -0.557908     -0.382823
  H       4.312296     -0.151523      1.898029
  H       3.962566     -1.873044      1.527729
  H       3.618598     -1.218449      3.163633
  H      -0.775271     -2.463845      2.728971
  H      -2.497148     -4.254468      2.386271
  H      -4.637253     -1.657362     -0.302295
  H      -2.918321      0.122935      0.039336
  H      -2.917289      2.872220      1.624560
  H      -1.927263      2.293346      0.249779
  H       0.772662      2.549886      2.483674
  H      -0.446954      3.126614      3.652023
  H      -0.914194      2.125198     -2.855615
  H      -1.319910      0.431128     -3.310985
  H      -2.520098      1.444300     -2.445588
  H       0.919106      0.722280     -3.115415
43
Coordinates from ORCA-job file E -1854.857804423005
  C       3.198992      0.371395     -4.098022
  O       3.511581      0.037531     -2.764586
  C       2.533874      0.057041     -1.827342
  C       2.935871     -0.278688     -0.527986
  C       1.992033     -0.286082      0.500838
  O       2.310134     -0.602939      1.779375
  C       3.646331     -0.910059      2.109080
  C       0.636746      0.037791      0.249779
  S      -0.434401      0.129510      1.795205
  C      -1.733214     -1.041228      1.389058
  C      -1.580036     -2.319499      1.940558
  C      -2.541097     -3.306040      1.715812
  C      -3.659008     -2.997665      0.937909
  Cl     -4.872986     -4.219580      0.648064
  C      -3.824300     -1.721232      0.390923
  C      -2.857938     -0.742333      0.614934
  C      -1.253851      1.540035      2.270008
  C      -1.841380      2.583538      1.318809
  O      -0.876263      3.570193      1.730782
  C      -0.345296      2.691726      2.736235
  C       0.266788      0.378257     -1.056544
  O      -1.039691      0.683262     -1.263262
  C      -1.482332      1.074612     -2.544332
  C       1.201989      0.384878     -2.104838
  H       2.816342      1.404706     -4.183207
  H       4.134087      0.289474     -4.668449
  H       2.453606     -0.320659     -4.530479
  H       3.984244     -0.523305     -0.371716
  H       4.324116     -0.064154      1.896525
  H       4.007678     -1.800319      1.563921
  H       3.658652     -1.118683      3.187391
  H      -0.700483     -2.539551      2.549262
  H      -2.431839     -4.304941      2.140478
  H      -4.711226     -1.501904     -0.205590
  H      -2.983515      0.253715      0.197683
  H      -2.871892      2.906140      1.578308
  H      -1.804939      2.383701      0.235440
  H       0.752520      2.556253      2.654705
  H      -0.553221      3.077166      3.757111
  H      -0.966930      1.987926     -2.889502
  H      -1.339321      0.271942     -3.289087
  H      -2.556205      1.285796     -2.449644
  H       0.895879      0.642075     -3.113907
43
Coordinates from ORCA-job file E -1854.859908525432
  C       3.156321      0.310899     -4.099417
  O       3.486607      0.003707     -2.764537
  C       2.520804      0.030572     -1.817881
  C       2.937848     -0.279525     -0.515973
  C       2.001300     -0.275731      0.520526
  O       2.329188     -0.568368      1.801133
  C       3.669369     -0.854878      2.129098
  C       0.645048      0.032692      0.274415
  S      -0.438065      0.156379      1.811822
  C      -1.718754     -1.023944      1.379037
  C      -1.526703     -2.337402      1.821243
  C      -2.483342     -3.318199      1.553861
  C      -3.635508     -2.967645      0.846864
  Cl     -4.843465     -4.181962      0.505214
  C      -3.839945     -1.653703      0.413452
  C      -2.877792     -0.680944      0.677400
  C      -1.248496      1.576785      2.236728
  C      -1.762901      2.654307      1.284312
  O      -0.838794      3.621981      1.808453
  C      -0.391877      2.707677      2.824081
  C       0.257198      0.346446     -1.031456
  O      -1.054110      0.632307     -1.225720
  C      -1.518420      0.981370     -2.509475
  C       1.182392      0.341407     -2.088299
  H       2.762263      1.338699     -4.196671
  H       4.084975      0.229255     -4.679915
  H       2.414021     -0.397087     -4.510504
  H       3.988877     -0.514040     -0.362010
  H       4.335915     -0.005578      1.896060
  H       4.035550     -1.752382      1.599310
  H       3.691442     -1.042501      3.210900
  H      -0.621244     -2.594710      2.375773
  H      -2.343118     -4.345733      1.893085
  H      -4.753124     -1.399214     -0.127385
  H      -3.038140      0.343523      0.348741
  H      -2.812244      2.964655      1.478100
  H      -1.639608      2.487190      0.200533
  H       0.709028      2.577527      2.829720
  H      -0.696684      3.049208      3.835966
  H      -1.015728      1.887643     -2.890428
  H      -1.379712      0.156803     -3.230955
  H      -2.592679      1.185786     -2.406766
  H       0.862410      0.576527     -3.098732
43
Coordinates from ORCA-job file E -1854.861758498655
  C       3.096992      0.224499     -4.094253
  O       3.449132     -0.044554     -2.756943
  C       2.498116     -0.001532     -1.798078
  C       2.937525     -0.278549     -0.495073
  C       2.015588     -0.257812      0.555146
  O       2.356858     -0.522454      1.836866
  C       3.702334     -0.791969      2.156073
  C       0.657412      0.035871      0.318930
  S      -0.440924      0.186282      1.839581
  C      -1.699105     -1.000394      1.360120
  C      -1.467114     -2.341468      1.674360
  C      -2.414659     -3.313636      1.346897
  C      -3.595971     -2.925489      0.711617
  Cl     -4.789862     -4.129771      0.294801
  C      -3.841066     -1.581434      0.410560
  C      -2.888543     -0.617554      0.734367
  C      -1.232410      1.618354      2.216405
  C      -1.691081      2.719415      1.262222
  O      -0.814000      3.675654      1.877816
  C      -0.427826      2.732478      2.894928
  C       0.243422      0.316655     -0.987073
  O      -1.073021      0.585135     -1.158531
  C      -1.571042      0.879742     -2.442358
  C       1.152587      0.292764     -2.057224
  H       2.692017      1.245643     -4.212555
  H       4.018014      0.136379     -4.685582
  H       2.356569     -0.501371     -4.476200
  H       3.991779     -0.504061     -0.348915
  H       4.360047      0.056606      1.897145
  H       4.069008     -1.699052      1.643244
  H       3.738015     -0.955057      3.241315
  H      -0.538459     -2.631966      2.172290
  H      -2.243080     -4.364579      1.585911
  H      -4.776604     -1.296144     -0.074151
  H      -3.083422      0.430051      0.511984
  H      -2.754128      3.017191      1.392475
  H      -1.492031      2.576641      0.185593
  H       0.670719      2.610669      2.971479
  H      -0.812164      3.037937      3.890742
  H      -1.088132      1.775015     -2.871785
  H      -1.441307      0.028850     -3.134355
  H      -2.644672      1.076558     -2.322042
  H       0.814587      0.500257     -3.068049
43
Coordinates from ORCA-job file E -1854.863460588577
  C       3.070804      0.176862     -4.082847
  O       3.428643     -0.081248     -2.744651
  C       2.482628     -0.026899     -1.780963
  C       2.930227     -0.292635     -0.478265
  C       2.016388     -0.257730      0.578840
  O       2.361414     -0.511750      1.861770
  C       3.707776     -0.782822      2.177483
  C       0.659512      0.038456      0.346291
  S      -0.449672      0.209606      1.848967
  C      -1.690586     -0.989620      1.353514
  C      -1.400932     -2.340873      1.546359
  C      -2.338234     -3.315024      1.194895
  C      -3.566258     -2.918103      0.662172
  Cl     -4.746425     -4.125953      0.217703
  C      -3.869241     -1.563294      0.486907
  C      -2.926697     -0.597515      0.833935
  C      -1.232761      1.652828      2.170260
  C      -1.622895      2.758033      1.191037
  O      -0.799521      3.711744      1.881235
  C      -0.479715      2.759092      2.914143
  C       0.234954      0.309865     -0.959886
  O      -1.079849      0.591127     -1.118204
  C      -1.593934      0.863256     -2.400717
  C       1.136551      0.270695     -2.035703
  H       2.668507      1.198168     -4.208893
  H       3.988996      0.080464     -4.677399
  H       2.326568     -0.550222     -4.454974
  H       3.984415     -0.521119     -0.335882
  H       4.367650      0.060471      1.906982
  H       4.068984     -1.696794      1.672964
  H       3.748023     -0.934623      3.264268
  H      -0.436042     -2.639403      1.964454
  H      -2.122182     -4.375026      1.338849
  H      -4.840157     -1.271474      0.082385
  H      -3.165707      0.458482      0.714116
  H      -2.693802      3.052411      1.238120
  H      -1.339122      2.621050      0.131796
  H       0.611275      2.640766      3.064953
  H      -0.936770      3.053218      3.882117
  H      -1.111668      1.746114     -2.856044
  H      -1.479881     -0.002442     -3.076948
  H      -2.664431      1.069732     -2.269258
  H       0.793269      0.471926     -3.046183
43
Coordinates from ORCA-job file E -1854.865110463393
  C       3.048214      0.133366     -4.073644
  O       3.414223     -0.088911     -2.730392
  C       2.468348     -0.035264     -1.763235
  C       2.928645     -0.265668     -0.458731
  C       2.022303     -0.230165      0.604415
  O       2.376490     -0.452844      1.892312
  C       3.730809     -0.687542      2.208555
  C       0.658936      0.034411      0.371951
  S      -0.458015      0.207546      1.854402
  C      -1.705404     -0.975922      1.327031
  C      -1.381210     -2.331070      1.384998
  C      -2.321650     -3.290664      1.002925
  C      -3.584887     -2.875397      0.577338
  Cl     -4.767703     -4.067152      0.096187
  C      -3.920798     -1.517283      0.538189
  C      -2.975085     -0.566123      0.917681
  C      -1.207690      1.670238      2.152100
  C      -1.498202      2.804857      1.172262
  O      -0.718519      3.724589      1.956798
  C      -0.485640      2.735824      2.979611
  C       0.218844      0.270717     -0.938820
  O      -1.103591      0.518576     -1.092235
  C      -1.640856      0.732030     -2.377532
  C       1.115306      0.227715     -2.018625
  H       2.623556      1.142847     -4.221317
  H       3.968032      0.044018     -4.667375
  H       2.318971     -0.616894     -4.429511
  H       3.988274     -0.469145     -0.318899
  H       4.371306      0.164830      1.920090
  H       4.111940     -1.602388      1.720374
  H       3.777351     -0.817524      3.298214
  H      -0.388213     -2.642804      1.718927
  H      -2.081045     -4.354159      1.042475
  H      -4.917784     -1.213014      0.215236
  H      -3.233530      0.492855      0.911153
  H      -2.562315      3.123248      1.129909
  H      -1.125916      2.692228      0.138076
  H       0.590310      2.593186      3.201817
  H      -1.002778      3.013689      3.921787
  H      -1.191206      1.613297     -2.868380
  H      -1.508053     -0.151765     -3.026375
  H      -2.715502      0.910952     -2.238502
  H       0.763834      0.400481     -3.031540
43
Coordinates from ORCA-job file E -1854.866650816930
  C       3.037989      0.130304     -4.047341
  O       3.403881     -0.079130     -2.700949
  C       2.453279     -0.028304     -1.734201
  C       2.917419     -0.247456     -0.430328
  C       2.015837     -0.217184      0.635782
  O       2.370768     -0.429217      1.926274
  C       3.730154     -0.643069      2.243334
  C       0.648564      0.030830      0.401532
  S      -0.470777      0.192635      1.851787
  C      -1.729083     -0.984953      1.313326
  C      -1.366823     -2.330009      1.242358
  C      -2.309905     -3.283154      0.852431
  C      -3.608868     -2.871219      0.546452
  Cl     -4.793011     -4.058867      0.054421
  C      -3.979068     -1.524386      0.635654
  C      -3.030358     -0.580291      1.029006
  C      -1.183834      1.684660      2.106112
  C      -1.386295      2.807942      1.093145
  O      -0.638441      3.721033      1.922020
  C      -0.469159      2.733870      2.958722
  C       0.203129      0.260738     -0.912831
  O      -1.120686      0.497586     -1.063793
  C      -1.670381      0.682304     -2.349900
  C       1.098949      0.220950     -1.992781
  H       2.603251      1.134260     -4.204495
  H       3.961052      0.045506     -4.637227
  H       2.316343     -0.628765     -4.400521
  H       3.979579     -0.439247     -0.293146
  H       4.358736      0.217020      1.951400
  H       4.125807     -1.553616      1.758691
  H       3.777427     -0.767498      3.333795
  H      -0.344499     -2.634577      1.480213
  H      -2.044633     -4.339595      0.793161
  H      -5.002277     -1.226156      0.402718
  H      -3.298497      0.472677      1.133258
  H      -2.432043      3.158731      0.959128
  H      -0.941021      2.681813      0.089929
  H       0.593650      2.569330      3.227801
  H      -1.013634      3.035782      3.877898
  H      -1.241538      1.566269     -2.854666
  H      -1.521771     -0.206747     -2.987758
  H      -2.747148      0.841760     -2.203864
  H       0.748036      0.387240     -3.006845
43
Coordinates from ORCA-job file E -1854.867897214201
  C       3.030108      0.101578     -4.034084
  O       3.406160     -0.080940     -2.687469
  C       2.457867     -0.035459     -1.721074
  C       2.926406     -0.226003     -0.413835
  C       2.022499     -0.197031      0.649926
  O       2.381424     -0.382172      1.941417
  C       3.744641     -0.563581      2.258659
  C       0.649973      0.017507      0.413356
  S      -0.463185      0.181502      1.866391
  C      -1.738669     -0.972237      1.304729
  C      -1.364347     -2.298081      1.081923
  C      -2.321599     -3.228413      0.673383
  C      -3.644999     -2.813620      0.502130
  Cl     -4.848400     -3.971962     -0.014225
  C      -4.023925     -1.489152      0.745935
  C      -3.061084     -0.567308      1.156826
  C      -1.166743      1.676852      2.088471
  C      -1.304811      2.805016      1.075240
  O      -0.619335      3.714632      1.957085
  C      -0.499663      2.715588      2.988026
  C       0.202249      0.219637     -0.902018
  O      -1.123969      0.429490     -1.056296
  C      -1.675283      0.578242     -2.344876
  C       1.098976      0.183674     -1.981423
  H       2.573898      1.093939     -4.202501
  H       3.951222      0.027523     -4.627714
  H       2.322432     -0.677061     -4.372254
  H       3.992301     -0.394451     -0.274682
  H       4.354075      0.304426      1.950789
  H       4.156649     -1.473569      1.787017
  H       3.796755     -0.669688      3.350389
  H      -0.323174     -2.603553      1.214037
  H      -2.049639     -4.269935      0.494850
  H      -5.065528     -1.190795      0.615970
  H      -3.327757      0.468134      1.381124
  H      -2.339199      3.154827      0.869497
  H      -0.789016      2.688275      0.102979
  H       0.549367      2.548632      3.306136
  H      -1.086165      3.006092      3.885214
  H      -1.267535      1.464496     -2.862819
  H      -1.501273     -0.317430     -2.966630
  H      -2.755795      0.711492     -2.202751
  H       0.744194      0.330687     -2.997149
43
Coordinates from ORCA-job file E -1854.868743567438
  C       3.040874      0.106980     -4.017163
  O       3.416076     -0.065888     -2.669287
  C       2.466653     -0.028844     -1.705746
  C       2.934322     -0.208273     -0.395706
  C       2.026219     -0.186369      0.664754
  O       2.382952     -0.357732      1.957151
  C       3.746512     -0.521731      2.281364
  C       0.651012      0.004580      0.423018
  S      -0.465593      0.166462      1.859454
  C      -1.750193     -0.985083      1.295460
  C      -1.377743     -2.281933      0.937169
  C      -2.354890     -3.193225      0.535575
  C      -3.693640     -2.789279      0.505481
  Cl     -4.921863     -3.923955     -0.006422
  C      -4.065776     -1.495669      0.882562
  C      -3.082851     -0.592252      1.288816
  C      -1.151563      1.677915      2.050496
  C      -1.232051      2.794502      1.021571
  O      -0.611126      3.715795      1.937184
  C      -0.517686      2.716925      2.970935
  C       0.204637      0.199267     -0.893246
  O      -1.122475      0.391434     -1.048912
  C      -1.677393      0.519068     -2.337623
  C       1.105372      0.173249     -1.969602
  H       2.574495      1.093685     -4.189783
  H       3.963260      0.040619     -4.609398
  H       2.342356     -0.680822     -4.352735
  H       4.001849     -0.361760     -0.252796
  H       4.346561      0.350725      1.968366
  H       4.169265     -1.431237      1.818484
  H       3.795710     -0.618671      3.373860
  H      -0.326025     -2.578251      0.956300
  H      -2.087750     -4.212543      0.251310
  H      -5.117672     -1.205349      0.856515
  H      -3.328968      0.423736      1.610922
  H      -2.249946      3.137648      0.738065
  H      -0.647282      2.670208      0.088002
  H       0.523332      2.551857      3.317385
  H      -1.128057      3.005337      3.852827
  H      -1.290892      1.412281     -2.859810
  H      -1.480212     -0.375823     -2.953529
  H      -2.760673      0.625888     -2.195655
  H       0.750964      0.316329     -2.985913
43
Coordinates from ORCA-job file E -1854.869061714943
  C       3.068680      0.111137     -4.001636
  O       3.440072     -0.058221     -2.652682
  C       2.488877     -0.026770     -1.693808
  C       2.952002     -0.204157     -0.380444
  C       2.037161     -0.189286      0.674318
  O       2.390507     -0.350755      1.967381
  C       3.753114     -0.501074      2.299433
  C       0.660041     -0.013273      0.426846
  S      -0.454803      0.149356      1.865193
  C      -1.752321     -0.996885      1.296395
  C      -1.401102     -2.258624      0.811717
  C      -2.402105     -3.147800      0.421751
  C      -3.742267     -2.758156      0.528041
  Cl     -5.001241     -3.864213      0.027688
  C      -4.089723     -1.501863      1.029275
  C      -3.082964     -0.617941      1.421709
  C      -1.146418      1.660449      2.029569
  C      -1.251274      2.752569      0.979648
  O      -0.689117      3.713441      1.890448
  C      -0.531363      2.728108      2.929283
  C       0.220688      0.185850     -0.889699
  O      -1.105604      0.374530     -1.049839
  C      -1.657527      0.496384     -2.339780
  C       1.127253      0.168805     -1.961694
  H       2.598510      1.095468     -4.176417
  H       3.992765      0.048468     -4.591232
  H       2.375203     -0.680596     -4.337935
  H       4.019976     -0.349648     -0.233146
  H       4.346443      0.375091      1.984474
  H       4.185290     -1.409636      1.843620
  H       3.797465     -0.591966      3.392448
  H      -0.350357     -2.544027      0.720758
  H      -2.154227     -4.138981      0.037227
  H      -5.142280     -1.221480      1.104370
  H      -3.297942      0.378369      1.821446
  H      -2.273890      3.047013      0.661613
  H      -0.635448      2.631353      0.063844
  H       0.525251      2.602389      3.245682
  H      -1.122700      3.001396      3.828457
  H      -1.278059      1.393305     -2.860556
  H      -1.449413     -0.396639     -2.954824
  H      -2.742111      0.591671     -2.201124
  H       0.775058      0.316644     -2.978120
43
Coordinates from ORCA-job file E -1854.869152789258
  C       3.094174      0.141899     -4.007047
  O       3.456155     -0.038305     -2.656382
  C       2.498858     -0.017821     -1.701831
  C       2.955983     -0.200478     -0.386962
  C       2.037291     -0.192738      0.664630
  O       2.386406     -0.354026      1.959780
  C       3.748080     -0.500636      2.299129
  C       0.660289     -0.022503      0.410456
  S      -0.462503      0.142622      1.838141
  C      -1.763952     -1.013831      1.292570
  C      -1.425774     -2.284962      0.824992
  C      -2.436628     -3.174994      0.463497
  C      -3.773652     -2.777663      0.580243
  Cl     -5.043487     -3.887078      0.116099
  C      -4.108588     -1.510647      1.062274
  C      -3.091954     -0.625455      1.426655
  C      -1.146977      1.659147      2.010054
  C      -1.227630      2.760237      0.966721
  O      -0.707716      3.715743      1.908546
  C      -0.541950      2.714546      2.930937
  C       0.226155      0.183892     -0.908199
  O      -1.100026      0.377263     -1.072709
  C      -1.648633      0.506564     -2.364077
  C       1.138122      0.175913     -1.975523
  H       2.624379      1.127401     -4.177086
  H       4.022713      0.084950     -4.590685
  H       2.403871     -0.647857     -4.354699
  H       4.023826     -0.342062     -0.235115
  H       4.340602      0.377990      1.988877
  H       4.185750     -1.407331      1.844524
  H       3.786933     -0.593084      3.392505
  H      -0.378337     -2.578270      0.725060
  H      -2.198637     -4.173253      0.091818
  H      -5.158422     -1.223331      1.145791
  H      -3.293814      0.381465      1.805563
  H      -2.239630      3.046822      0.611144
  H      -0.574207      2.653479      0.075191
  H       0.516646      2.591604      3.242713
  H      -1.133668      2.967669      3.835397
  H      -1.269515      1.407738     -2.877947
  H      -1.436950     -0.381967     -2.984510
  H      -2.734095      0.598967     -2.228441
  H       0.790613      0.332179     -2.992391
43
Coordinates from ORCA-job file E -1854.869243239484
  C       3.089937      0.140972     -4.002345
  O       3.453988     -0.041554     -2.652269
  C       2.497431     -0.022680     -1.695944
  C       2.957672     -0.206257     -0.382603
  C       2.042533     -0.199881      0.672065
  O       2.393977     -0.360766      1.967252
  C       3.756891     -0.504122      2.303879
  C       0.665611     -0.029265      0.420123
  S      -0.461006      0.143091      1.847489
  C      -1.761340     -1.007346      1.287643
  C      -1.422681     -2.276424      0.817856
  C      -2.432338     -3.165024      0.447774
  C      -3.769342     -2.768731      0.559264
  Cl     -5.036391     -3.877664      0.087379
  C      -4.106537     -1.501971      1.042422
  C      -3.091107     -0.618937      1.414752
  C      -1.140452      1.659537      2.020678
  C      -1.264654      2.753710      0.972275
  O      -0.733125      3.720383      1.896899
  C      -0.517509      2.726147      2.917464
  C       0.227346      0.178040     -0.898024
  O      -1.099880      0.370345     -1.058024
  C      -1.652224      0.499432     -2.348225
  C       1.136161      0.169340     -1.967674
  H       2.620212      1.126902     -4.170666
  H       4.018124      0.084593     -4.586776
  H       2.398992     -0.647948     -4.350721
  H       4.026008     -0.347199     -0.233156
  H       4.347416      0.376035      1.993801
  H       4.196831     -1.409247      1.848316
  H       3.797587     -0.597159      3.397276
  H      -0.374832     -2.571046      0.723349
  H      -2.192010     -4.162035      0.074563
  H      -5.156433     -1.214891      1.124307
  H      -3.298350      0.384125      1.799333
  H      -2.288860      3.024508      0.640401
  H      -0.632045      2.649524      0.066264
  H       0.553797      2.619932      3.189437
  H      -1.079489      2.975405      3.841323
  H      -1.274838      1.399993     -2.864531
  H      -1.443766     -0.389327     -2.969443
  H      -2.737289      0.592869     -2.209483
  H       0.786084      0.324393     -2.983997
43
Coordinates from ORCA-job file E -1854.869286733872
  C       3.090293      0.138958     -4.003338
  O       3.455588     -0.044311     -2.653787
  C       2.499313     -0.023647     -1.696901
  C       2.959216     -0.209842     -0.384183
  C       2.044310     -0.203591      0.670664
  O       2.396013     -0.368283      1.965331
  C       3.758986     -0.514041      2.300163
  C       0.667805     -0.029804      0.419561
  S      -0.456237      0.144872      1.853311
  C      -1.758451     -1.002654      1.294713
  C      -1.418939     -2.273029      0.829176
  C      -2.427204     -3.161850      0.455165
  C      -3.764218     -2.764050      0.557116
  Cl     -5.029667     -3.872260      0.079345
  C      -4.102754     -1.495469      1.035556
  C      -3.089025     -0.612965      1.412513
  C      -1.141975      1.657368      2.026527
  C      -1.288227      2.749132      0.978843
  O      -0.765119      3.723010      1.900427
  C      -0.520066      2.730932      2.915877
  C       0.230133      0.179853     -0.898103
  O      -1.097177      0.372328     -1.058961
  C      -1.647729      0.502438     -2.349703
  C       1.138392      0.170390     -1.968231
  H       2.621090      1.125284     -4.170739
  H       4.017874      0.082048     -4.588602
  H       2.398309     -0.649198     -4.351362
  H       4.027331     -0.353295     -0.235282
  H       4.350264      0.366182      1.991716
  H       4.197693     -1.418354      1.841865
  H       3.800666     -0.609822      3.393254
  H      -0.370828     -2.568600      0.740468
  H      -2.185188     -4.159708      0.085263
  H      -5.152715     -1.206735      1.110228
  H      -3.300108      0.389611      1.795542
  H      -2.317345      3.005291      0.651286
  H      -0.657387      2.653658      0.070530
  H       0.557750      2.639060      3.166965
  H      -1.067594      2.971871      3.850472
  H      -1.268078      1.402314     -2.865490
  H      -1.440285     -0.386657     -2.970753
  H      -2.732791      0.598056     -2.212293
  H       0.788178      0.325308     -2.984449
43
Coordinates from ORCA-job file E -1854.869305171808
  C       3.091133      0.143007     -4.002646
  O       3.457091     -0.040550     -2.653298
  C       2.500271     -0.024107     -1.696404
  C       2.960555     -0.209441     -0.384064
  C       2.045836     -0.206408      0.671048
  O       2.397967     -0.370050      1.965822
  C       3.761661     -0.509172      2.300626
  C       0.669157     -0.036474      0.419887
  S      -0.454756      0.140902      1.853955
  C      -1.760750     -1.001477      1.296756
  C      -1.423504     -2.271134      0.827759
  C      -2.433122     -3.157281      0.450717
  C      -3.769362     -2.757545      0.552868
  Cl     -5.036581     -3.861814      0.070812
  C      -4.105778     -1.490171      1.036525
  C      -3.090763     -0.610791      1.416674
  C      -1.136343      1.655116      2.026356
  C      -1.288585      2.746129      0.979387
  O      -0.782876      3.723518      1.907053
  C      -0.517979      2.730097      2.915790
  C       0.230686      0.172319     -0.897695
  O      -1.097042      0.362733     -1.058254
  C      -1.647983      0.492685     -2.348827
  C       1.138808      0.166250     -1.967966
  H       2.617402      1.127404     -4.168637
  H       4.019086      0.091149     -4.587796
  H       2.402746     -0.647748     -4.351943
  H       4.029129     -0.349459     -0.235031
  H       4.348570      0.374045      1.992354
  H       4.205016     -1.411113      1.842148
  H       3.803911     -0.604886      3.393708
  H      -0.375933     -2.567977      0.737605
  H      -2.192085     -4.154388      0.078143
  H      -5.155146     -1.199517      1.111728
  H      -3.301640      0.389567      1.805373
  H      -2.316684      2.992134      0.641619
  H      -0.646996      2.659026      0.077317
  H       0.564290      2.648221      3.151748
  H      -1.055666      2.961880      3.858240
  H      -1.269749      1.393446     -2.864120
  H      -1.439136     -0.395808     -2.970263
  H      -2.733171      0.586763     -2.211251
  H       0.788416      0.320719     -2.984122
43
Coordinates from ORCA-job file E -1854.869314088442
  C       3.092122      0.147431     -4.002317
  O       3.457534     -0.038715     -2.653248
  C       2.500509     -0.023192     -1.696775
  C       2.960120     -0.210765     -0.384528
  C       2.044642     -0.209042      0.670032
  O       2.395919     -0.375139      1.964577
  C       3.759425     -0.513690      2.300177
  C       0.668271     -0.037848      0.418512
  S      -0.455436      0.140009      1.852034
  C      -1.761403     -1.002306      1.298093
  C      -1.423601     -2.274049      0.834321
  C      -2.432712     -3.161351      0.458942
  C      -3.769068     -2.760824      0.557791
  Cl     -5.036029     -3.865986      0.077256
  C      -4.105822     -1.491819      1.036636
  C      -3.091263     -0.611153      1.415103
  C      -1.134759      1.655550      2.023679
  C      -1.288290      2.745528      0.976445
  O      -0.787843      3.724727      1.905091
  C      -0.517805      2.731311      2.912406
  C       0.230544      0.173431     -0.898740
  O      -1.096823      0.365078     -1.059374
  C      -1.647294      0.497818     -2.349767
  C       1.139141      0.168391     -1.968655
  H       2.618609      1.132193     -4.166572
  H       4.020191      0.096535     -4.587321
  H       2.403733     -0.642578     -4.353289
  H       4.028504     -0.351567     -0.234955
  H       4.345691      0.370424      1.993336
  H       4.203668     -1.414708      1.840785
  H       3.801095     -0.610757      3.393132
  H      -0.375952     -2.571575      0.747591
  H      -2.191103     -4.160082      0.091040
  H      -5.155238     -1.200472      1.108899
  H      -3.303140      0.390660      1.799680
  H      -2.315880      2.988910      0.635098
  H      -0.643319      2.660091      0.076306
  H       0.565685      2.652016      3.144220
  H      -1.052705      2.960907      3.856944
  H      -1.268135      1.399254     -2.863170
  H      -1.438768     -0.389771     -2.972598
  H      -2.732408      0.592459     -2.212310
  H       0.789495      0.324467     -2.984807
43
Coordinates from ORCA-job file E -1854.869316395634
  C       3.092345      0.150988     -4.001995
  O       3.457247     -0.036665     -2.653019
  C       2.500164     -0.022468     -1.696747
  C       2.959702     -0.210871     -0.384457
  C       2.043795     -0.210408      0.669787
  O       2.394804     -0.377423      1.964274
  C       3.758328     -0.513831      2.300672
  C       0.667323     -0.039789      0.418102
  S      -0.456212      0.138409      1.850980
  C      -1.762448     -1.002797      1.298071
  C      -1.424573     -2.275392      0.835925
  C      -2.433610     -3.163150      0.461839
  C      -3.770038     -2.762232      0.560249
  Cl     -5.037238     -3.867740      0.081195
  C      -4.106666     -1.492679      1.037222
  C      -3.092052     -0.611318      1.414429
  C      -1.132067      1.655404      2.021042
  C      -1.283172      2.744830      0.973372
  O      -0.785502      3.724383      1.903270
  C      -0.517235      2.730839      2.911078
  C       0.229722      0.172211     -0.899009
  O      -1.097634      0.363565     -1.059504
  C      -1.648096      0.498712     -2.349649
  C       1.138647      0.168609     -1.968682
  H       2.618391      1.135701     -4.165239
  H       4.020635      0.101331     -4.586762
  H       2.404551     -0.638977     -4.354242
  H       4.028084     -0.351249     -0.234611
  H       4.343257      0.371228      1.994019
  H       4.204140     -1.414226      1.841573
  H       3.799578     -0.610768      3.393651
  H      -0.376899     -2.573095      0.750227
  H      -2.191978     -4.162495      0.095637
  H      -5.156092     -1.201233      1.109093
  H      -3.304183      0.391231      1.797005
  H      -2.309617      2.988491      0.628622
  H      -0.635493      2.659300      0.074971
  H       0.565942      2.651395      3.144683
  H      -1.053570      2.960245      3.854848
  H      -1.269203      1.401352     -2.861128
  H      -1.439042     -0.387558     -2.974181
  H      -2.733254      0.592570     -2.212062
  H       0.789321      0.325372     -2.984849
