43
Coordinates from ORCA-job file
  C   3.09234465809655      0.15098810866984     -4.00199535873249
  O   3.45724747247082     -0.03666456336454     -2.65301912289253
  C   2.50016440137551     -0.02246836275838     -1.69674702661473
  C   2.95970169946449     -0.21087135870825     -0.38445729538672
  C   2.04379476074648     -0.21040808080440      0.66978682068314
  O   2.39480442345437     -0.37742252245749      1.96427350471127
  C   3.75832814349803     -0.51383057632118      2.30067182653261
  C   0.66732293833801     -0.03978903379440      0.41810231213842
  S   -0.45621198557168      0.13840886443155      1.85097990964354
  C   -1.76244802269944     -1.00279730673526      1.29807087595071
  C   -1.42457266018201     -2.27539186019275      0.83592527704583
  C   -2.43360985142790     -3.16315024173858      0.46183875834372
  C   -3.77003824039998     -2.76223246583491      0.56024861043436
  Cl  -5.03723828563923     -3.86773986041193      0.08119511456658
  C   -4.10666644545156     -1.49267931118891      1.03722152792549
  C   -3.09205210655293     -0.61131810218996      1.41442898910792
  C   -1.13206712250088      1.65540412482187      2.02104221933482
  C   -1.28317206522679      2.74483049043221      0.97337151674044
  O   -0.78550185673415      3.72438261976528      1.90326982033834
  C   -0.51723512470696      2.73083856226497      2.91107782412449
  C   0.22972190978665      0.17221071319255     -0.89900857156822
  O   -1.09763363558775      0.36356468223660     -1.05950399609552
  C   -1.64809569173135      0.49871178762799     -2.34964850641363
  C   1.13864699190163      0.16860900268436     -1.96868181200511
  H   2.61839065510255      1.13570106095742     -4.16523877451545
  H   4.02063530546058      0.10133142200046     -4.58676192722337
  H   2.40455068287339     -0.63897685665244     -4.35424195250530
  H   4.02808366400312     -0.35124908102692     -0.23461054791655
  H   4.34325660486962      0.37122790222480      1.99401912248665
  H   4.20414048457322     -1.41422610908718      1.84157275507634
  H   3.79957793227135     -0.61076835284759      3.39365149690824
  H   -0.37689893399303     -2.57309458411642      0.75022695721171
  H   -2.19197786050902     -4.16249541635985      0.09563668890164
  H   -5.15609224474477     -1.20123302098469      1.10909274390437
  H   -3.30418329726763      0.39123140251849      1.79700483796842
  H   -2.30961746998939      2.98849083921426      0.62862225021694
  H   -0.63549312861553      2.65929968568624      0.07497149728312
  H   0.56594150688029      2.65139486437587      3.14468265334531
  H   -1.05356954350275      2.96024495534728      3.85484810730271
  H   -1.26920329535273      1.40135239149608     -2.86112782079423
  H   -1.43904234245908     -0.38755814954569     -2.97418074157414
  H   -2.73325352892064      0.59257015918019     -2.21206193590590
  H   0.78932050460052      0.32537157799339     -2.98484862808327
