29
Coordinates from ORCA-job file E -463.566690346282
  C      -2.917700      0.297600     -0.307700
  C      -1.872000      1.418100     -0.421800
  C      -0.509900      0.857600     -0.839600
  C       0.023200     -0.188700      0.202100
  C       0.878100     -1.267500     -0.523500
  C       2.145900     -0.677500     -1.183600
  N       2.560500      0.604200     -0.587900
  C       2.406400      0.590600      0.869100
  C       0.916600      0.526600      1.260800
  N      -1.103200     -0.830800      0.932300
  C      -2.291800     -1.046700      0.097300
  H      -3.437200      0.171800     -1.282700
  H      -3.681400      0.595500      0.443500
  H      -1.769900      1.932400      0.558800
  H      -2.212100      2.171800     -1.164500
  H      -0.630300      0.386600     -1.840800
  H       0.201600      1.701300     -0.971100
  H       1.200300     -2.033100      0.217100
  H       0.276700     -1.799300     -1.291700
  H       2.974500     -1.418300     -1.115600
  H       1.942800     -0.506800     -2.262600
  H       3.573000      0.753300     -0.808400
  H       2.856400      1.512500      1.297600
  H       2.952600     -0.278900      1.301700
  H       0.852300     -0.006800      2.235200
  H       0.539100      1.555700      1.449500
  H      -0.806500     -1.749500      1.338200
  H      -3.041800     -1.638700      0.665800
  H      -2.026300     -1.632800     -0.809800
29
Coordinates from ORCA-job file E -463.574032302088
  C      -2.924033      0.302747     -0.306767
  C      -1.859795      1.409689     -0.412534
  C      -0.509000      0.828323     -0.836996
  C       0.032501     -0.185364      0.201568
  C       0.892349     -1.253153     -0.503682
  C       2.140756     -0.666122     -1.195832
  N       2.546354      0.609520     -0.585333
  C       2.401180      0.574672      0.871208
  C       0.911211      0.521421      1.258269
  N      -1.105934     -0.799966      0.916823
  C      -2.279445     -1.039726      0.076953
  H      -3.447295      0.186021     -1.264612
  H      -3.676084      0.585167      0.439125
  H      -1.746921      1.912020      0.555500
  H      -2.181748      2.170320     -1.133576
  H      -0.623661      0.341723     -1.816554
  H       0.227580      1.623748     -0.969953
  H       1.204213     -1.994821      0.245703
  H       0.285774     -1.787640     -1.244641
  H       2.953395     -1.411565     -1.144274
  H       1.933931     -0.486892     -2.257758
  H       3.515813      0.783017     -0.817847
  H       2.859467      1.477747      1.288144
  H       2.934140     -0.290725      1.309726
  H       0.813775     -0.011457      2.211648
  H       0.522590      1.531949      1.429725
  H      -0.800384     -1.671760      1.332703
  H      -2.992524     -1.646186      0.645528
  H      -2.028302     -1.612506     -0.834566
29
Coordinates from ORCA-job file E -463.574915864318
  C      -2.924651      0.307126     -0.306522
  C      -1.852245      1.408926     -0.408145
  C      -0.513734      0.812814     -0.848855
  C       0.035541     -0.184959      0.201016
  C       0.906213     -1.254233     -0.486327
  C       2.130665     -0.654052     -1.205937
  N       2.542462      0.607418     -0.573248
  C       2.399972      0.556832      0.881469
  C       0.907438      0.530117      1.259390
  N      -1.111728     -0.788464      0.910040
  C      -2.272200     -1.038256      0.057801
  H      -3.455181      0.201483     -1.261318
  H      -3.670220      0.580280      0.448568
  H      -1.727297      1.897954      0.564576
  H      -2.169387      2.184257     -1.114953
  H      -0.648878      0.301825     -1.812955
  H       0.236752      1.589896     -1.011744
  H       1.237709     -1.968107      0.280918
  H       0.301485     -1.820397     -1.204605
  H       2.941757     -1.402264     -1.192421
  H       1.895541     -0.450775     -2.257264
  H       3.504123      0.809764     -0.821490
  H       2.877607      1.445804      1.306026
  H       2.912799     -0.322086      1.315887
  H       0.788626      0.007806      2.215903
  H       0.524622      1.545842      1.409362
  H      -0.808617     -1.646954      1.359402
  H      -2.976920     -1.664321      0.614955
  H      -2.012358     -1.593076     -0.861828
29
Coordinates from ORCA-job file E -463.575218536043
  C      -2.923439      0.309915     -0.305430
  C      -1.844886      1.407103     -0.409123
  C      -0.515628      0.797764     -0.860780
  C       0.036753     -0.187034      0.200163
  C       0.919264     -1.254962     -0.474482
  C       2.121529     -0.638576     -1.215288
  N       2.547794      0.604482     -0.557577
  C       2.398743      0.538977      0.894878
  C       0.902510      0.541260      1.257422
  N      -1.113640     -0.787308      0.905279
  C      -2.270113     -1.038767      0.048418
  H      -3.462709      0.212252     -1.256522
  H      -3.660590      0.580462      0.459232
  H      -1.708881      1.885644      0.567597
  H      -2.160235      2.192159     -1.106289
  H      -0.672543      0.265685     -1.810390
  H       0.241502      1.562783     -1.051471
  H       1.274900     -1.943807      0.305028
  H       0.321473     -1.851397     -1.174414
  H       2.930878     -1.387939     -1.250804
  H       1.850770     -0.403961     -2.251899
  H       3.502496      0.825940     -0.813041
  H       2.894665      1.410811      1.334457
  H       2.887309     -0.356779      1.322846
  H       0.762979      0.040792      2.223256
  H       0.533236      1.566122      1.378364
  H      -0.817450     -1.633990      1.379452
  H      -2.973163     -1.676022      0.595409
  H      -2.003625     -1.581410     -0.876590
29
Coordinates from ORCA-job file E -463.575247405212
  C      -2.923630      0.309566     -0.303259
  C      -1.843873      1.405446     -0.411062
  C      -0.516692      0.792719     -0.864622
  C       0.036976     -0.188246      0.199027
  C       0.923668     -1.253965     -0.474040
  C       2.119854     -0.631741     -1.218844
  N       2.556021      0.601614     -0.549312
  C       2.398524      0.531737      0.901846
  C       0.900440      0.546954      1.254474
  N      -1.112634     -0.789483      0.903737
  C      -2.270547     -1.039745      0.048754
  H      -3.467502      0.212585     -1.251798
  H      -3.656350      0.581435      0.465147
  H      -1.704730      1.883076      0.565623
  H      -2.159759      2.191041     -1.107294
  H      -0.679504      0.255258     -1.810132
  H       0.240629      1.555633     -1.063099
  H       1.287077     -1.936865      0.306912
  H       0.329173     -1.857801     -1.170410
  H       2.926694     -1.382245     -1.276071
  H       1.835296     -0.381409     -2.248173
  H       3.511512      0.823234     -0.802332
  H       2.900390      1.396218      1.349089
  H       2.875618     -0.370544      1.328646
  H       0.750396      0.061854      2.226499
  H       0.539681      1.576770      1.357607
  H      -0.818600     -1.634297      1.383035
  H      -2.973623     -1.677565      0.594928
  H      -2.004604     -1.581033     -0.877178
29
Coordinates from ORCA-job file E -463.575250033311
  C      -2.924017      0.308734     -0.301411
  C      -1.844549      1.404676     -0.411674
  C      -0.517549      0.791922     -0.865732
  C       0.037031     -0.188266      0.198141
  C       0.924211     -1.253117     -0.475773
  C       2.120566     -0.630048     -1.219412
  N       2.560231      0.600306     -0.546366
  C       2.398614      0.529688      0.904318
  C       0.899869      0.549373      1.252708
  N      -1.111666     -0.790497      0.903413
  C      -2.270575     -1.040493      0.049825
  H      -3.470096      0.211368     -1.248658
  H      -3.654903      0.581131      0.468570
  H      -1.704577      1.883530      0.564321
  H      -2.161427      2.189280     -1.108582
  H      -0.680955      0.254114     -1.810935
  H       0.239108      1.555328     -1.065205
  H       1.287807     -1.937115      0.304063
  H       0.330066     -1.855978     -1.173301
  H       2.926177     -1.381464     -1.281201
  H       1.834229     -0.375178     -2.247177
  H       3.517156      0.818441     -0.796525
  H       2.901722      1.392269      1.353884
  H       2.871965     -0.374307      1.331614
  H       0.745503      0.070665      2.227210
  H       0.542471      1.581091      1.348605
  H      -0.817379     -1.635251      1.382381
  H      -2.973319     -1.677923      0.596898
  H      -2.005812     -1.582080     -0.876302
