29
Coordinates from ORCA-job file
  C   -2.92401724116037      0.30873356984194     -0.30141114209744
  C   -1.84454913073721      1.40467594847247     -0.41167350764782
  C   -0.51754924831319      0.79192196273296     -0.86573218569020
  C   0.03703050361611     -0.18826588895321      0.19814143238612
  C   0.92421082440601     -1.25311659549092     -0.47577306443747
  C   2.12056615623449     -0.63004757596835     -1.21941207667587
  N   2.56023094610794      0.60030574643601     -0.54636627584340
  C   2.39861430312585      0.52968818599478      0.90431829652241
  C   0.89986877579283      0.54937340230224      1.25270837588968
  N   -1.11166570034170     -0.79049730633449      0.90341310411959
  C   -2.27057467187254     -1.04049279174051      0.04982490639750
  H   -3.47009615778192      0.21136813280200     -1.24865751215678
  H   -3.65490275637371      0.58113091811664      0.46857027124117
  H   -1.70457722910676      1.88353010856807      0.56432097585607
  H   -2.16142700674038      2.18927986102949     -1.10858244165080
  H   -0.68095532857029      0.25411414949320     -1.81093509299030
  H   0.23910777395507      1.55532780124525     -1.06520518819294
  H   1.28780654879377     -1.93711450307878      0.30406327681065
  H   0.33006551520559     -1.85597796040098     -1.17330057103681
  H   2.92617673068096     -1.38146376737717     -1.28120096127338
  H   1.83422941504824     -0.37517795755584     -2.24717659444651
  H   3.51715555661195      0.81844055314830     -0.79652520721326
  H   2.90172185757964      1.39226889317397      1.35388396868384
  H   2.87196462553552     -0.37430668451731      1.33161430140463
  H   0.74550313869492      0.07066542233680      2.22721048287770
  H   0.54247121420006      1.58109086043508      1.34860499129874
  H   -0.81737853978355     -1.63525143199980      1.38238091858059
  H   -2.97331898759970     -1.67792328956479      0.59689827456018
  H   -2.00581188720762     -1.58207976314707     -0.87630175527589
