43
Coordinates from ORCA-job file E -1855.994244962294
  C       3.455700      0.597100     -4.114300
  O       3.613900      0.183600     -2.760900
  C       2.585700      0.178400     -1.805800
  C       2.888400     -0.254600     -0.512800
  C       1.901100     -0.280900      0.488600
  O       2.182500     -0.711400      1.796000
  C       3.458200     -1.156900      2.244100
  C       0.595500      0.135700      0.180200
  S      -0.635500      0.107300      1.443100
  C      -1.828400     -1.174300      1.360700
  C      -1.662700     -2.327200      2.137500
  C      -2.607000     -3.356700      2.074300
  C      -3.720200     -3.236100      1.234700
  Cl     -4.904400     -4.527500      1.155300
  C      -3.887500     -2.083300      0.459000
  C      -2.943600     -1.053500      0.521700
  C      -1.073700      1.594200      2.346400
  C      -1.948300      2.517900      1.532100
  O      -0.935200      3.484300      1.402400
  C      -0.056700      2.698800      2.169200
  C       0.274000      0.568400     -1.118000
  O      -1.043800      0.964700     -1.393300
  C      -1.507400      1.424300     -2.658200
  C       1.275700      0.589600     -2.106300
  H       3.136700      1.660100     -4.154200
  H       4.427700      0.498300     -4.639400
  H       2.708800     -0.046500     -4.625500
  H       3.900900     -0.568800     -0.298900
  H       4.206400     -0.343600      2.135500
  H       3.775600     -2.050100      1.665700
  H       3.388700     -1.434500      3.315700
  H      -0.802900     -2.428600      2.787900
  H      -2.472600     -4.246200      2.676500
  H      -4.747400     -1.984200     -0.191100
  H      -3.085600     -0.165600     -0.079300
  H      -2.797800      2.912900      2.130200
  H      -2.262400      2.125800      0.542500
  H       0.851900      2.428200      1.590000
  H       0.179600      3.197900      3.133900
  H      -0.957900      2.342200     -2.955700
  H      -1.375600      0.631500     -3.424300
  H      -2.587000      1.666600     -2.580400
  H       1.036700      0.922500     -3.105100
43
Coordinates from ORCA-job file E -1856.019566470617
  C       3.357761      0.562703     -4.062122
  O       3.584422      0.147662     -2.724801
  C       2.572891      0.151644     -1.798151
  C       2.894006     -0.270620     -0.511004
  C       1.912745     -0.288782      0.483628
  O       2.191178     -0.697628      1.761105
  C       3.494949     -1.119019      2.127471
  C       0.600189      0.120207      0.193415
  S      -0.623751      0.115516      1.496165
  C      -1.830172     -1.165290      1.362823
  C      -1.679927     -2.317459      2.139238
  C      -2.617455     -3.344964      2.054080
  C      -3.706514     -3.219508      1.191602
  Cl     -4.884733     -4.511858      1.085059
  C      -3.864306     -2.072217      0.414085
  C      -2.925781     -1.045024      0.499719
  C      -1.132167      1.606402      2.375532
  C      -1.988054      2.562066      1.531337
  O      -0.944944      3.541791      1.469825
  C      -0.089634      2.728709      2.275653
  C       0.287744      0.537204     -1.109869
  O      -1.004397      0.919025     -1.362788
  C      -1.401736      1.366289     -2.649309
  C       1.269609      0.556947     -2.105758
  H       3.030159      1.612258     -4.095146
  H       4.306396      0.470811     -4.598286
  H       2.609573     -0.079793     -4.549488
  H       3.909530     -0.579623     -0.300538
  H       4.221485     -0.304576      1.991810
  H       3.801517     -1.997608      1.540758
  H       3.462850     -1.392545      3.185825
  H      -0.834703     -2.415110      2.808599
  H      -2.498367     -4.236602      2.656856
  H      -4.711801     -1.977358     -0.253532
  H      -3.052221     -0.156024     -0.101944
  H      -2.860563      2.950742      2.084629
  H      -2.271136      2.208266      0.528709
  H       0.851838      2.483135      1.755845
  H       0.104863      3.211330      3.248345
  H      -0.843822      2.268882     -2.936794
  H      -1.254986      0.575926     -3.400109
  H      -2.466168      1.611484     -2.595552
  H       1.023735      0.882406     -3.107220
43
Coordinates from ORCA-job file E -1856.030315192499
  C       3.292129      0.523855     -4.052049
  O       3.560056      0.112873     -2.720430
  C       2.559889      0.125880     -1.804700
  C       2.908740     -0.285683     -0.519850
  C       1.943188     -0.298814      0.486689
  O       2.225529     -0.689532      1.750884
  C       3.546212     -1.095639      2.075381
  C       0.619330      0.102517      0.217028
  S      -0.581235      0.120815      1.571159
  C      -1.809381     -1.146379      1.367733
  C      -1.690006     -2.301833      2.141726
  C      -2.628969     -3.321938      2.022730
  C      -3.685955     -3.180007      1.127931
  Cl     -4.869170     -4.464601      0.978638
  C      -3.816777     -2.031701      0.350912
  C      -2.875323     -1.013707      0.471932
  C      -1.185304      1.611510      2.391306
  C      -2.011003      2.567653      1.496684
  O      -0.961397      3.568204      1.499384
  C      -0.139606      2.751074      2.361328
  C       0.294080      0.505919     -1.088575
  O      -0.992708      0.876388     -1.302267
  C      -1.384869      1.322558     -2.592361
  C       1.253933      0.524044     -2.103767
  H       2.960185      1.567260     -4.086542
  H       4.231500      0.431077     -4.593720
  H       2.541393     -0.119436     -4.524040
  H       3.928165     -0.586529     -0.327702
  H       4.262365     -0.281590      1.920700
  H       3.849364     -1.971016      1.490636
  H       3.529187     -1.359433      3.131207
  H      -0.866276     -2.403664      2.836952
  H      -2.538104     -4.218434      2.623170
  H      -4.644155     -1.931501     -0.340735
  H      -2.972461     -0.119550     -0.127403
  H      -2.914974      2.949588      1.989809
  H      -2.243653      2.229608      0.481323
  H       0.837893      2.529417      1.912548
  H      -0.002902      3.235156      3.337261
  H      -0.833040      2.222027     -2.883707
  H      -1.244432      0.538218     -3.343937
  H      -2.443739      1.564550     -2.522339
  H       0.992402      0.840596     -3.101226
43
Coordinates from ORCA-job file E -1856.037080838867
  C       3.254683      0.497030     -4.067700
  O       3.540419      0.092784     -2.735126
  C       2.546799      0.108164     -1.813353
  C       2.921511     -0.293863     -0.530618
  C       1.973489     -0.307738      0.491901
  O       2.269002     -0.687599      1.755343
  C       3.599827     -1.079920      2.066485
  C       0.639263      0.082859      0.241360
  S      -0.528550      0.113823      1.647291
  C      -1.780695     -1.129595      1.376872
  C      -1.696889     -2.290800      2.145996
  C      -2.644595     -3.298543      1.995351
  C      -3.673104     -3.133737      1.073403
  Cl     -4.870061     -4.402583      0.883216
  C      -3.770435     -1.979928      0.300530
  C      -2.819365     -0.975899      0.454373
  C      -1.223338      1.602021      2.384611
  C      -2.010281      2.547999      1.440505
  O      -0.969494      3.567559      1.505597
  C      -0.190867      2.758267      2.425148
  C       0.293241      0.477136     -1.062843
  O      -0.999886      0.841201     -1.248438
  C      -1.413158      1.293621     -2.533145
  C       1.234615      0.496303     -2.096556
  H       2.918683      1.537673     -4.106344
  H       4.192073      0.403225     -4.611008
  H       2.503777     -0.150264     -4.530962
  H       3.946758     -0.584870     -0.359105
  H       4.307719     -0.262640      1.900260
  H       3.906542     -1.955540      1.486510
  H       3.588011     -1.334580      3.123778
  H      -0.893570     -2.404229      2.863202
  H      -2.584217     -4.200579      2.591128
  H      -4.578918     -1.866575     -0.410965
  H      -2.885552     -0.076191     -0.139545
  H      -2.945743      2.922431      1.873754
  H      -2.185104      2.216580      0.413486
  H       0.820467      2.560006      2.050041
  H      -0.122060      3.248193      3.403974
  H      -0.871516      2.196187     -2.829033
  H      -1.284298      0.516202     -3.291948
  H      -2.470556      1.530018     -2.437561
  H       0.955470      0.806190     -3.090167
43
Coordinates from ORCA-job file E -1856.042281060873
  C       3.259754      0.454680     -4.095306
  O       3.544181      0.056550     -2.757674
  C       2.546664      0.084646     -1.836200
  C       2.926464     -0.310344     -0.551412
  C       1.983195     -0.315176      0.474267
  O       2.278488     -0.688251      1.742532
  C       3.613923     -1.075049      2.054192
  C       0.644790      0.076248      0.229616
  S      -0.488380      0.120866      1.698645
  C      -1.762495     -1.107208      1.384142
  C      -1.672594     -2.277137      2.139471
  C      -2.619966     -3.285703      1.986170
  C      -3.654344     -3.107649      1.074900
  Cl     -4.854824     -4.376133      0.878465
  C      -3.761011     -1.944684      0.317396
  C      -2.809311     -0.941533      0.474949
  C      -1.266267      1.575935      2.377561
  C      -2.040636      2.530974      1.435997
  O      -1.024196      3.575569      1.574475
  C      -0.268290      2.755892      2.511060
  C       0.299196      0.467080     -1.076569
  O      -0.992792      0.845772     -1.264151
  C      -1.394225      1.309903     -2.552455
  C       1.236246      0.476119     -2.116647
  H       2.929207      1.496640     -4.141532
  H       4.200118      0.350554     -4.632474
  H       2.506096     -0.191376     -4.555631
  H       3.953127     -0.602017     -0.388906
  H       4.319125     -0.256913      1.881521
  H       3.923409     -1.952907      1.479588
  H       3.597915     -1.321434      3.113797
  H      -0.863352     -2.395027      2.849715
  H      -2.556539     -4.195108      2.570016
  H      -4.578052     -1.825250     -0.382971
  H      -2.880821     -0.034659     -0.103567
  H      -2.999720      2.875045      1.841235
  H      -2.175505      2.238877      0.393156
  H       0.769310      2.606347      2.190622
  H      -0.260120      3.222260      3.503742
  H      -0.839760      2.206566     -2.841625
  H      -1.273184      0.534704     -3.314348
  H      -2.449240      1.559139     -2.455799
  H       0.954515      0.782994     -3.110263
43
Coordinates from ORCA-job file E -1856.045596636161
  C       3.221164      0.437403     -4.109211
  O       3.524001      0.043008     -2.774471
  C       2.537723      0.070732     -1.835782
  C       2.932295     -0.317652     -0.553812
  C       1.999546     -0.321433      0.480383
  O       2.316035     -0.691864      1.749298
  C       3.658686     -1.065907      2.046329
  C       0.656747      0.062221      0.249288
  S      -0.448529      0.116851      1.758759
  C      -1.735044     -1.091864      1.400722
  C      -1.670107     -2.270799      2.146355
  C      -2.626728     -3.267918      1.970183
  C      -3.645530     -3.068089      1.045542
  Cl     -4.859512     -4.320066      0.817217
  C      -3.726131     -1.895748      0.298454
  C      -2.764971     -0.904766      0.478190
  C      -1.290542      1.555348      2.332990
  C      -1.998406      2.502688      1.345486
  O      -1.019828      3.561499      1.579461
  C      -0.340198      2.751129      2.576810
  C       0.296677      0.450021     -1.049758
  O      -1.000766      0.830111     -1.229977
  C      -1.418227      1.298651     -2.511382
  C       1.223506      0.456671     -2.100354
  H       2.886495      1.479260     -4.150915
  H       4.153908      0.335082     -4.661526
  H       2.461505     -0.212847     -4.555821
  H       3.962730     -0.605273     -0.403509
  H       4.352815     -0.240141      1.859875
  H       3.966979     -1.942950      1.468135
  H       3.661029     -1.309763      3.107522
  H      -0.873768     -2.404931      2.868248
  H      -2.583225     -4.183473      2.546136
  H      -4.531597     -1.760072     -0.412202
  H      -2.817416      0.008142     -0.094432
  H      -2.994088      2.826747      1.675467
  H      -2.041764      2.221060      0.290286
  H       0.727652      2.630953      2.355963
  H      -0.438582      3.208916      3.570361
  H      -0.863947      2.195646     -2.803663
  H      -1.307432      0.523644     -3.276229
  H      -2.472418      1.549755     -2.402510
  H       0.929365      0.759816     -3.092205
43
Coordinates from ORCA-job file E -1856.047790543122
  C       3.270263      0.399077     -4.136263
  O       3.552039     -0.001835     -2.798335
  C       2.554108      0.043677     -1.869641
  C       2.927442     -0.345957     -0.581691
  C       1.980568     -0.330791      0.438619
  O       2.275563     -0.704968      1.715832
  C       3.610018     -1.093308      2.034740
  C       0.645189      0.071141      0.193612
  S      -0.446126      0.159948      1.747312
  C      -1.730002     -1.069148      1.405362
  C      -1.603977     -2.259894      2.125674
  C      -2.545666     -3.276781      1.979467
  C      -3.612589     -3.082103      1.110121
  Cl     -4.811673     -4.356525      0.916090
  C      -3.755336     -1.897770      0.391852
  C      -2.808054     -0.888145      0.540633
  C      -1.323685      1.547481      2.301351
  C      -2.034912      2.538475      1.372321
  O      -1.093323      3.602155      1.704682
  C      -0.431012      2.748841      2.677722
  C       0.308729      0.460825     -1.107901
  O      -0.980534      0.865318     -1.314345
  C      -1.367180      1.345914     -2.601470
  C       1.249339      0.447204     -2.148420
  H       2.953647      1.446789     -4.179207
  H       4.207344      0.281158     -4.678680
  H       2.503776     -0.237979     -4.590666
  H       3.952066     -0.648256     -0.421800
  H       4.315279     -0.275638      1.853844
  H       3.915771     -1.976119      1.463782
  H       3.593523     -1.332703      3.097193
  H      -0.771170     -2.388658      2.806519
  H      -2.455059     -4.201266      2.535264
  H      -4.599637     -1.767627     -0.273272
  H      -2.911011      0.033343     -0.010540
  H      -3.045395      2.815238      1.702893
  H      -2.051498      2.335338      0.299988
  H       0.650183      2.684579      2.503228
  H      -0.589961      3.136846      3.693659
  H      -0.787893      2.231118     -2.882016
  H      -1.262130      0.569728     -3.365988
  H      -2.417592      1.619898     -2.507811
  H       0.970667      0.751181     -3.144014
43
Coordinates from ORCA-job file E -1856.049303630069
  C       3.252225      0.381935     -4.136580
  O       3.535138     -0.031982     -2.804212
  C       2.545052      0.023159     -1.868194
  C       2.917731     -0.375395     -0.582799
  C       1.973096     -0.350153      0.439837
  O       2.269719     -0.733672      1.714689
  C       3.600653     -1.132694      2.028537
  C       0.644608      0.070246      0.200671
  S      -0.444572      0.194751      1.763290
  C      -1.705654     -1.056401      1.422254
  C      -1.541638     -2.268285      2.097823
  C      -2.473846     -3.292904      1.945290
  C      -3.569221     -3.086096      1.114185
  Cl     -4.756852     -4.369293      0.913155
  C      -3.746317     -1.881493      0.438513
  C      -2.808182     -0.864093      0.591820
  C      -1.349293      1.575129      2.231496
  C      -1.995332      2.580242      1.276466
  O      -1.099508      3.639901      1.712482
  C      -0.521035      2.775240      2.725771
  C       0.307202      0.467651     -1.095317
  O      -0.979860      0.881400     -1.297773
  C      -1.368780      1.361549     -2.582179
  C       1.243464      0.442579     -2.139515
  H       2.950508      1.434626     -4.169392
  H       4.182713      0.255363     -4.688377
  H       2.473361     -0.240849     -4.590159
  H       3.938428     -0.692667     -0.426270
  H       4.311485     -0.320227      1.844707
  H       3.896202     -2.017922      1.455434
  H       3.589761     -1.373455      3.090797
  H      -0.688526     -2.409311      2.750628
  H      -2.354267     -4.233245      2.468130
  H      -4.609981     -1.741303     -0.199377
  H      -2.938886      0.071475      0.069064
  H      -3.033332      2.835799      1.533370
  H      -1.920010      2.400306      0.201841
  H       0.572765      2.730081      2.652992
  H      -0.787995      3.132130      3.730666
  H      -0.778127      2.236825     -2.871485
  H      -1.280559      0.579950     -3.343861
  H      -2.414633      1.651360     -2.484783
  H       0.962393      0.749542     -3.133935
43
Coordinates from ORCA-job file E -1856.050384199399
  C       3.209822      0.322516     -4.145421
  O       3.517742     -0.053770     -2.808796
  C       2.539811      0.002364     -1.861611
  C       2.935725     -0.354934     -0.570643
  C       1.998538     -0.327871      0.459542
  O       2.314687     -0.677798      1.739680
  C       3.658185     -1.027185      2.052264
  C       0.662259      0.058990      0.224638
  S      -0.429235      0.218334      1.798844
  C      -1.686192     -1.019691      1.401639
  C      -1.518999     -2.277408      1.983593
  C      -2.463620     -3.280714      1.774929
  C      -3.573072     -3.006837      0.982237
  Cl     -4.777600     -4.260921      0.714875
  C      -3.749074     -1.755750      0.396363
  C      -2.798686     -0.760137      0.603994
  C      -1.317881      1.591772      2.229626
  C      -1.933696      2.652802      1.320739
  O      -1.070574      3.681616      1.867864
  C      -0.545575      2.760116      2.859110
  C       0.297562      0.407787     -1.075098
  O      -1.009094      0.754627     -1.276535
  C      -1.433790      1.162714     -2.572368
  C       1.223406      0.377882     -2.128727
  H       2.882126      1.366654     -4.197907
  H       4.135160      0.206757     -4.707934
  H       2.441016     -0.328729     -4.575638
  H       3.964586     -0.645768     -0.416286
  H       4.342304     -0.198540      1.841142
  H       3.976420     -1.917933      1.500018
  H       3.665989     -1.240917      3.120218
  H      -0.656114     -2.474327      2.608930
  H      -2.343046     -4.256714      2.227642
  H      -4.621244     -1.562352     -0.215756
  H      -2.929820      0.210592      0.146499
  H      -2.985048      2.881601      1.550887
  H      -1.808240      2.539992      0.242423
  H       0.550859      2.731972      2.854220
  H      -0.888583      3.042561      3.864463
  H      -0.879747      2.044232     -2.911667
  H      -1.329106      0.351334     -3.300377
  H      -2.488031      1.418941     -2.472878
  H       0.919971      0.641942     -3.129034
43
Coordinates from ORCA-job file E -1856.051622219612
  C       3.186988      0.263268     -4.134388
  O       3.490155     -0.121432     -2.800397
  C       2.521265     -0.035795     -1.849790
  C       2.914292     -0.403335     -0.560390
  C       1.983226     -0.347685      0.475562
  O       2.289826     -0.708463      1.752172
  C       3.623135     -1.092261      2.061241
  C       0.661068      0.077303      0.244641
  S      -0.457134      0.275105      1.789465
  C      -1.658846     -1.015136      1.404733
  C      -1.412650     -2.292585      1.904930
  C      -2.327713     -3.320388      1.684534
  C      -3.487732     -3.051382      0.966075
  Cl     -4.653629     -4.337562      0.690143
  C      -3.744725     -1.777139      0.465931
  C      -2.823984     -0.757023      0.683933
  C      -1.343944      1.663043      2.165995
  C      -1.930917      2.731106      1.240958
  O      -1.113498      3.761602      1.848872
  C      -0.621296      2.831020      2.850557
  C       0.295647      0.434339     -1.053661
  O      -0.999474      0.821786     -1.236891
  C      -1.425221      1.238970     -2.527690
  C       1.214357      0.379103     -2.111643
  H       2.887373      1.315411     -4.186700
  H       4.105627      0.123361     -4.701345
  H       2.400092     -0.366232     -4.563423
  H       3.933626     -0.726560     -0.408113
  H       4.329756     -0.283843      1.847586
  H       3.917385     -1.992641      1.511808
  H       3.629728     -1.304053      3.129076
  H      -0.510591     -2.490342      2.472456
  H      -2.144238     -4.313989      2.073657
  H      -4.655369     -1.584183     -0.087689
  H      -3.020570      0.232484      0.294925
  H      -2.996417      2.938179      1.418628
  H      -1.745177      2.628869      0.168822
  H       0.473647      2.817220      2.897921
  H      -1.023827      3.086031      3.840164
  H      -0.846289      2.098268     -2.881040
  H      -1.358738      0.422038     -3.253692
  H      -2.468043      1.532339     -2.417766
  H       0.912930      0.650987     -3.110467
43
Coordinates from ORCA-job file E -1856.052591239088
  C       3.152413      0.175788     -4.126862
  O       3.469103     -0.175003     -2.786566
  C       2.507615     -0.069870     -1.830019
  C       2.915330     -0.405048     -0.536273
  C       1.994553     -0.328967      0.507859
  O       2.309993     -0.661854      1.789837
  C       3.647497     -1.033402      2.097411
  C       0.669940      0.085780      0.278791
  S      -0.458805      0.299583      1.813486
  C      -1.653218     -0.987348      1.390677
  C      -1.349702     -2.298587      1.749682
  C      -2.253180     -3.325453      1.480199
  C      -3.458615     -3.021284      0.857482
  Cl     -4.607027     -4.308324      0.518483
  C      -3.775868     -1.711603      0.504594
  C      -2.867374     -0.692404      0.772006
  C      -1.334066      1.694164      2.160734
  C      -1.905386      2.772834      1.237688
  O      -1.126847      3.801906      1.899263
  C      -0.640757      2.853086      2.889208
  C       0.288497      0.410541     -1.024326
  O      -1.009155      0.791632     -1.198328
  C      -1.452819      1.172627     -2.494486
  C       1.196786      0.334435     -2.089979
  H       2.845679      1.224318     -4.203030
  H       4.067834      0.027544     -4.696821
  H       2.366456     -0.468408     -4.535184
  H       3.936894     -0.722298     -0.386390
  H       4.350225     -0.228854      1.858514
  H       3.941516     -1.946143      1.568735
  H       3.662668     -1.218547      3.170083
  H      -0.410032     -2.526065      2.240162
  H      -2.024166     -4.346677      1.757719
  H      -4.722524     -1.491215      0.026931
  H      -3.111844      0.325153      0.502661
  H      -2.979516      2.960333      1.378572
  H      -1.679040      2.696875      0.170513
  H       0.452503      2.854389      2.961598
  H      -1.070612      3.078245      3.874462
  H      -0.880747      2.022425     -2.880116
  H      -1.394699      0.336622     -3.199048
  H      -2.494445      1.467415     -2.378127
  H       0.885043      0.581460     -3.092095
43
Coordinates from ORCA-job file E -1856.053638108815
  C       3.120896      0.080673     -4.121504
  O       3.450656     -0.221989     -2.771454
  C       2.492028     -0.097539     -1.810949
  C       2.915088     -0.390877     -0.512114
  C       2.004295     -0.296595      0.539182
  O       2.329582     -0.590364      1.829690
  C       3.674315     -0.938996      2.140648
  C       0.673456      0.097002      0.309004
  S      -0.466361      0.312279      1.826891
  C      -1.664315     -0.963327      1.365652
  C      -1.308612     -2.292382      1.581755
  C      -2.200335     -3.316058      1.262873
  C      -3.445256     -2.990349      0.737222
  Cl     -4.575069     -4.275529      0.329748
  C      -3.818380     -1.663150      0.535860
  C      -2.921800     -0.647522      0.854243
  C      -1.317723      1.720924      2.167994
  C      -1.846886      2.825609      1.251470
  O      -1.101953      3.834824      1.985724
  C      -0.636247      2.849969      2.953071
  C       0.276230      0.384203     -1.000797
  O      -1.026500      0.750890     -1.169079
  C      -1.491919      1.082344     -2.472899
  C       1.175692      0.287135     -2.072560
  H       2.799122      1.121855     -4.231346
  H       4.036685     -0.074700     -4.689832
  H       2.341634     -0.587309     -4.504300
  H       3.941440     -0.693282     -0.363480
  H       4.367832     -0.135216      1.873503
  H       3.975737     -1.864142      1.638011
  H       3.695280     -1.091144      3.218846
  H      -0.335460     -2.536502      1.993026
  H      -1.930550     -4.351679      1.427080
  H      -4.797045     -1.427981      0.136581
  H      -3.209057      0.383697      0.713236
  H      -2.926388      3.011767      1.340727
  H      -1.568660      2.788078      0.194014
  H       0.454896      2.849364      3.052867
  H      -1.088225      3.044447      3.935275
  H      -0.934601      1.924823     -2.894834
  H      -1.432912      0.223657     -3.149656
  H      -2.535323      1.369621     -2.350782
  H       0.854814      0.503271     -3.078909
43
Coordinates from ORCA-job file E -1856.054670819498
  C       3.098334      0.008434     -4.106557
  O       3.438828     -0.254676     -2.749355
  C       2.479992     -0.117597     -1.786709
  C       2.914657     -0.375448     -0.484695
  C       2.011485     -0.268095      0.570961
  O       2.344407     -0.528161      1.868462
  C       3.696071     -0.856261      2.181590
  C       0.674419      0.104879      0.339485
  S      -0.468287      0.312099      1.842481
  C      -1.679328     -0.944984      1.343101
  C      -1.277028     -2.277137      1.409288
  C      -2.162606     -3.293608      1.051271
  C      -3.446561     -2.957027      0.639185
  Cl     -4.567453     -4.233645      0.176132
  C      -3.867675     -1.629406      0.595359
  C      -2.976325     -0.621624      0.954057
  C      -1.297480      1.733829      2.170026
  C      -1.795173      2.843282      1.246395
  O      -1.076139      3.845353      2.022083
  C      -0.620195      2.845720      2.980984
  C       0.266068      0.363103     -0.975479
  O      -1.039855      0.719640     -1.141522
  C      -1.522567      1.007814     -2.451342
  C       1.159383      0.248432     -2.050888
  H       2.762144      1.042156     -4.242774
  H       4.015245     -0.150793     -4.672813
  H       2.325905     -0.679815     -4.467423
  H       3.945833     -0.662514     -0.337397
  H       4.380025     -0.052062      1.891450
  H       4.004301     -1.789844      1.698760
  H       3.720855     -0.982022      3.263443
  H      -0.272025     -2.527648      1.730740
  H      -1.858075     -4.331443      1.098554
  H      -4.877446     -1.389596      0.287129
  H      -3.297711      0.409387      0.948888
  H      -2.876535      3.035331      1.290750
  H      -1.477853      2.824494      0.199483
  H       0.470103      2.844936      3.094497
  H      -1.079445      3.032217      3.961838
  H      -0.977746      1.843890     -2.902047
  H      -1.460014      0.130254     -3.103113
  H      -2.567629      1.287674     -2.324055
  H       0.833195      0.440284     -3.060518
43
Coordinates from ORCA-job file E -1856.055741207904
  C       3.084172     -0.039120     -4.091743
  O       3.435935     -0.265376     -2.730532
  C       2.477835     -0.127580     -1.766862
  C       2.922100     -0.349885     -0.461724
  C       2.021031     -0.237729      0.595112
  O       2.362229     -0.464942      1.896466
  C       3.720838     -0.763812      2.210343
  C       0.676501      0.103259      0.360562
  S      -0.472322      0.305866      1.847759
  C      -1.692149     -0.934301      1.319707
  C      -1.265422     -2.258017      1.238633
  C      -2.159491     -3.256552      0.853315
  C      -3.474034     -2.910721      0.561407
  Cl     -4.605450     -4.164236      0.060807
  C      -3.917344     -1.594229      0.668805
  C      -3.017804     -0.604889      1.058430
  C      -1.275707      1.741867      2.160167
  C      -1.710743      2.873289      1.235101
  O      -1.038087      3.851699      2.079710
  C      -0.626404      2.823834      3.028511
  C       0.257851      0.326629     -0.958156
  O      -1.053886      0.655919     -1.125182
  C      -1.551904      0.895860     -2.439055
  C       1.149593      0.207235     -2.034060
  H       2.725552      0.984118     -4.248548
  H       4.001715     -0.191306     -4.658907
  H       2.324687     -0.751223     -4.433335
  H       3.959325     -0.613333     -0.312421
  H       4.389466      0.045701      1.899877
  H       4.041900     -1.701945      1.744948
  H       3.752325     -0.866624      3.294353
  H      -0.236293     -2.515036      1.464212
  H      -1.837753     -4.288101      0.786398
  H      -4.950036     -1.349334      0.455059
  H      -3.351937      0.415938      1.179595
  H      -2.791337      3.074388      1.211004
  H      -1.325504      2.879769      0.210514
  H       0.459022      2.813544      3.183911
  H      -1.121815      2.988590      3.995624
  H      -1.028911      1.731055     -2.916735
  H      -1.472697      0.001423     -3.065539
  H      -2.602098      1.155227     -2.311453
  H       0.817154      0.372876     -3.046378
43
Coordinates from ORCA-job file E -1856.056635141291
  C       3.121993      0.036216     -4.063427
  O       3.472046     -0.178462     -2.698413
  C       2.499486     -0.076173     -1.742893
  C       2.932696     -0.287160     -0.433368
  C       2.015358     -0.204353      0.609662
  O       2.353323     -0.417856      1.914574
  C       3.718864     -0.681805      2.236345
  C       0.660631      0.089948      0.359800
  S      -0.469868      0.239690      1.824198
  C      -1.747478     -0.961689      1.306377
  C      -1.329223     -2.279324      1.111235
  C      -2.257109     -3.256291      0.759117
  C      -3.592783     -2.892078      0.608394
  Cl     -4.772895     -4.117805      0.144014
  C      -4.018837     -1.585371      0.827456
  C      -3.083043     -0.617992      1.193422
  C      -1.234402      1.699463      2.121643
  C      -1.582072      2.815603      1.161340
  O      -0.935221      3.786393      2.033366
  C      -0.581434      2.759384      2.999752
  C       0.255298      0.305791     -0.964260
  O      -1.059747      0.593242     -1.159662
  C      -1.553835      0.795583     -2.482151
  C       1.165876      0.215651     -2.026382
  H       2.730691      1.047992     -4.218707
  H       4.046596     -0.085267     -4.626658
  H       2.386531     -0.701332     -4.404073
  H       3.977456     -0.512890     -0.273204
  H       4.363025      0.148723      1.928302
  H       4.061199     -1.609593      1.765138
  H       3.747063     -0.787211      3.319822
  H      -0.284998     -2.545560      1.227224
  H      -1.949717     -4.283387      0.609152
  H      -5.066206     -1.331882      0.723076
  H      -3.385700      0.401099      1.419334
  H      -2.649888      3.062742      1.051013
  H      -1.126569      2.807994      0.166524
  H       0.503553      2.719792      3.171414
  H      -1.076275      2.957580      3.961587
  H      -1.059420      1.649576     -2.958870
  H      -1.423813     -0.104099     -3.092298
  H      -2.615493      1.008604     -2.365891
  H       0.844442      0.376316     -3.043322
43
Coordinates from ORCA-job file E -1856.057761725124
  C       3.114505      0.005800     -4.050353
  O       3.472760     -0.179823     -2.685178
  C       2.506238     -0.084584     -1.729285
  C       2.949783     -0.268474     -0.417673
  C       2.032512     -0.192363      0.628019
  O       2.378154     -0.375418      1.932070
  C       3.748000     -0.597339      2.257126
  C       0.671759      0.064511      0.377750
  S      -0.473937      0.229415      1.831933
  C      -1.742496     -0.960600      1.282121
  C      -1.337453     -2.249975      0.939886
  C      -2.288117     -3.196733      0.567340
  C      -3.632958     -2.833908      0.548360
  Cl     -4.838938     -4.020581      0.058538
  C      -4.043558     -1.556523      0.916152
  C      -3.085327     -0.618078      1.296229
  C      -1.216783      1.703249      2.105878
  C      -1.514490      2.842610      1.146442
  O      -0.924340      3.797379      2.070474
  C      -0.608242      2.751784      3.031411
  C       0.255308      0.255362     -0.945868
  O      -1.066247      0.508435     -1.130403
  C      -1.574959      0.679154     -2.449358
  C       1.163725      0.174779     -2.010234
  H       2.701263      1.005636     -4.220848
  H       4.038324     -0.103452     -4.615901
  H       2.395669     -0.752208     -4.379571
  H       3.998901     -0.468441     -0.255872
  H       4.371593      0.243466      1.937125
  H       4.116535     -1.523725      1.804370
  H       3.780852     -0.683687      3.341650
  H      -0.287448     -2.519118      0.952471
  H      -1.990072     -4.202948      0.300793
  H      -5.095693     -1.300429      0.909844
  H      -3.372520      0.374213      1.627762
  H      -2.575513      3.082303      0.980056
  H      -0.998654      2.844451      0.178696
  H       0.467952      2.709028      3.246431
  H      -1.150007      2.923736      3.971762
  H      -1.110294      1.537919     -2.945284
  H      -1.426760     -0.224510     -3.048973
  H      -2.640807      0.864275     -2.329754
  H       0.831878      0.315213     -3.026433
43
Coordinates from ORCA-job file E -1856.058142437425
  C       3.143791      0.025812     -4.036976
  O       3.495974     -0.145599     -2.668739
  C       2.523148     -0.069448     -1.720065
  C       2.962593     -0.240610     -0.404335
  C       2.036304     -0.184892      0.634929
  O       2.377545     -0.348553      1.941219
  C       3.749607     -0.527262      2.280477
  C       0.669804      0.031283      0.374379
  S      -0.477729      0.196975      1.818958
  C      -1.764046     -0.976305      1.263762
  C      -1.387472     -2.234127      0.795910
  C      -2.365789     -3.162042      0.450095
  C      -3.708567     -2.811744      0.578829
  Cl     -4.949409     -3.974562      0.120993
  C      -4.087023     -1.565742      1.066407
  C      -3.100767     -0.645453      1.420001
  C      -1.194401      1.684136      2.069132
  C      -1.428431      2.829562      1.098656
  O      -0.899440      3.775746      2.066435
  C      -0.618335      2.721142      3.028152
  C       0.258969      0.221877     -0.951559
  O      -1.064755      0.453939     -1.142519
  C      -1.571727      0.613861     -2.462925
  C       1.176807      0.161910     -2.009173
  H       2.712145      1.016258     -4.215776
  H       4.073204     -0.067519     -4.596030
  H       2.443032     -0.748253     -4.367531
  H       4.015100     -0.413858     -0.235065
  H       4.350501      0.330860      1.963283
  H       4.150993     -1.444296      1.836960
  H       3.774567     -0.607401      3.365658
  H      -0.340463     -2.494128      0.690879
  H      -2.091267     -4.144882      0.087816
  H      -5.136042     -1.316889      1.168665
  H      -3.353232      0.327746      1.829540
  H      -2.473576      3.072346      0.856932
  H      -0.843318      2.831797      0.169093
  H       0.451082      2.672471      3.274499
  H      -1.187975      2.885238      3.952871
  H      -1.127674      1.484591     -2.956696
  H      -1.398700     -0.285014     -3.063282
  H      -2.642386      0.771318     -2.347599
  H       0.847459      0.299511     -3.026558
43
Coordinates from ORCA-job file E -1856.058089273106
  C       3.187843      0.102584     -4.037486
  O       3.524237     -0.102758     -2.671865
  C       2.547280     -0.045213     -1.732446
  C       2.973801     -0.249983     -0.415499
  C       2.035406     -0.219683      0.614959
  O       2.364729     -0.408684      1.917625
  C       3.731162     -0.581836      2.271093
  C       0.670695      0.000426      0.345684
  S      -0.481535      0.179458      1.796989
  C      -1.757479     -1.016523      1.275242
  C      -1.410491     -2.299864      0.860302
  C      -2.409389     -3.224859      0.570482
  C      -3.745232     -2.848755      0.699272
  Cl     -5.008172     -4.011340      0.315306
  C      -4.094954     -1.572433      1.124862
  C      -3.090633     -0.650991      1.417316
  C      -1.212093      1.665686      2.033437
  C      -1.461065      2.805287      1.050191
  O      -0.937805      3.765688      2.002984
  C      -0.634892      2.725214      2.973337
  C       0.275208      0.235210     -0.976518
  O      -1.045678      0.480851     -1.169868
  C      -1.536697      0.689717     -2.487245
  C       1.203328      0.199457     -2.026172
  H       2.767690      1.100499     -4.198943
  H       4.120775      0.013825     -4.590483
  H       2.484673     -0.656928     -4.394484
  H       4.023573     -0.429740     -0.238423
  H       4.329100      0.288435      1.983905
  H       4.150114     -1.485043      1.816360
  H       3.743568     -0.685679      3.354275
  H      -0.370141     -2.584917      0.753966
  H      -2.156011     -4.227246      0.247909
  H      -5.138019     -1.296264      1.220401
  H      -3.324539      0.354975      1.748081
  H      -2.510288      3.025796      0.810391
  H      -0.874064      2.789606      0.120007
  H       0.438437      2.685039      3.200545
  H      -1.194842      2.889057      3.902826
  H      -1.086235      1.574411     -2.948056
  H      -1.363462     -0.187240     -3.119297
  H      -2.607966      0.847196     -2.380363
  H       0.880165      0.367362     -3.040898
43
Coordinates from ORCA-job file E -1856.058378804721
  C       3.176114      0.077059     -4.030600
  O       3.516618     -0.110441     -2.661534
  C       2.535905     -0.049655     -1.720293
  C       2.966635     -0.238081     -0.403295
  C       2.033963     -0.200226      0.630706
  O       2.365735     -0.375757      1.937215
  C       3.735404     -0.550346      2.287376
  C       0.666545      0.009733      0.362284
  S      -0.483551      0.180696      1.806308
  C      -1.775401     -0.998103      1.265467
  C      -1.415323     -2.262893      0.805080
  C      -2.404155     -3.192216      0.492543
  C      -3.742712     -2.837968      0.645404
  Cl     -4.994589     -4.005429      0.231759
  C      -4.106745     -1.582540      1.120231
  C      -3.110864     -0.660312      1.440395
  C      -1.198060      1.675289      2.051479
  C      -1.446674      2.808235      1.065144
  O      -0.911419      3.769603      2.016407
  C      -0.589007      2.726806      2.979733
  C       0.266009      0.226650     -0.963805
  O      -1.057108      0.464797     -1.158276
  C      -1.554257      0.644949     -2.480126
  C       1.191404      0.183586     -2.015684
  H       2.749519      1.070752     -4.203651
  H       4.110744     -0.013782     -4.581622
  H       2.476054     -0.690983     -4.376582
  H       4.018704     -0.409701     -0.229019
  H       4.334923      0.315228      1.988037
  H       4.149321     -1.459237      1.838592
  H       3.749082     -0.643455      3.372001
  H      -0.371670     -2.527429      0.678825
  H      -2.140510     -4.179417      0.133921
  H      -5.152623     -1.327621      1.238850
  H      -3.351562      0.324121      1.826122
  H      -2.493547      3.040295      0.825381
  H      -0.865700      2.795849      0.132531
  H       0.489340      2.683287      3.184261
  H      -1.122364      2.898966      3.923912
  H      -1.112430      1.526669     -2.955904
  H      -1.372715     -0.241267     -3.096777
  H      -2.626942      0.794285     -2.370657
  H       0.868010      0.339805     -3.032442
43
Coordinates from ORCA-job file E -1856.058412306298
  C       3.175672      0.080393     -4.030713
  O       3.517261     -0.110554     -2.662301
  C       2.536540     -0.049160     -1.720203
  C       2.966456     -0.242621     -0.403907
  C       2.034055     -0.204245      0.629990
  O       2.365431     -0.386251      1.936276
  C       3.734531     -0.570253      2.284144
  C       0.667753      0.013409      0.362426
  S      -0.480735      0.189686      1.810911
  C      -1.772266     -0.991495      1.273198
  C      -1.408298     -2.254263      0.811042
  C      -2.394269     -3.185302      0.494303
  C      -3.733750     -2.835134      0.647548
  Cl     -4.982637     -4.005050      0.231063
  C      -4.101435     -1.581619      1.125428
  C      -3.108444     -0.657336      1.447370
  C      -1.202528      1.679183      2.048395
  C      -1.454452      2.808447      1.060439
  O      -0.931910      3.774101      2.013340
  C      -0.601789      2.734612      2.976788
  C       0.267354      0.229320     -0.963322
  O      -1.056459      0.465370     -1.159064
  C      -1.553194      0.643050     -2.481422
  C       1.192832      0.187160     -2.015249
  H       2.751694      1.075714     -4.201210
  H       4.109346     -0.012361     -4.583075
  H       2.472644     -0.684888     -4.376873
  H       4.017981     -0.418924     -0.230411
  H       4.338853      0.292529      1.986155
  H       4.142027     -1.480299      1.831707
  H       3.749221     -0.666784      3.368432
  H      -0.363759     -2.515141      0.684349
  H      -2.127462     -4.170664      0.133079
  H      -5.148022     -1.330105      1.244958
  H      -3.352323      0.325147      1.837532
  H      -2.501544      3.033086      0.814142
  H      -0.867494      2.800716      0.131993
  H       0.477201      2.700080      3.180422
  H      -1.135609      2.903632      3.921263
  H      -1.112734      1.525498     -2.957482
  H      -1.369025     -0.243331     -3.096957
  H      -2.626306      0.790047     -2.372856
  H       0.869691      0.344400     -3.031948
43
Coordinates from ORCA-job file E -1856.058439089802
  C       3.179519      0.092410     -4.028243
  O       3.520666     -0.101041     -2.660094
  C       2.538709     -0.045329     -1.718761
  C       2.967734     -0.241695     -0.402664
  C       2.034638     -0.207209      0.630676
  O       2.365051     -0.392258      1.936755
  C       3.733942     -0.576599      2.284959
  C       0.668386      0.009748      0.362328
  S      -0.481450      0.188140      1.810580
  C      -1.774244     -0.993381      1.276122
  C      -1.412870     -2.255963      0.812270
  C      -2.400570     -3.185678      0.496676
  C      -3.739288     -2.834386      0.652725
  Cl     -4.990227     -4.002368      0.237437
  C      -4.104515     -1.580810      1.132878
  C      -3.109966     -0.658175      1.453745
  C      -1.204143      1.679167      2.046315
  C      -1.458948      2.804833      1.054661
  O      -0.940800      3.774523      2.005365
  C      -0.596100      2.738041      2.966629
  C       0.268478      0.226175     -0.963311
  O      -1.055932      0.459198     -1.159579
  C      -1.551670      0.638193     -2.482058
  C       1.194902      0.189012     -2.014546
  H       2.753974      1.087402     -4.196769
  H       4.113643      0.002329     -4.580268
  H       2.477865     -0.673152     -4.376533
  H       4.019333     -0.417162     -0.228704
  H       4.338174      0.287381      1.990234
  H       4.142396     -1.484905      1.829879
  H       3.748039     -0.676718      3.368925
  H      -0.368901     -2.517493      0.682425
  H      -2.135297     -4.170690      0.133360
  H      -5.150515     -1.328142      1.255136
  H      -3.351926      0.324088      1.845592
  H      -2.505920      3.025124      0.804657
  H      -0.868723      2.796086      0.128225
  H       0.485713      2.707379      3.156074
  H      -1.118350      2.906847      3.917441
  H      -1.115697      1.524744     -2.954672
  H      -1.361416     -0.245007     -3.100302
  H      -2.625801      0.778635     -2.374850
  H       0.872207      0.348506     -3.031016
43
Coordinates from ORCA-job file E -1856.058466569072
  C       3.184064      0.105683     -4.025228
  O       3.524272     -0.092308     -2.657545
  C       2.541194     -0.042128     -1.717001
  C       2.968990     -0.244748     -0.401483
  C       2.035096     -0.214311      0.631360
  O       2.364055     -0.405372      1.936962
  C       3.732432     -0.591748      2.285704
  C       0.669569      0.005513      0.362629
  S      -0.482120      0.187933      1.811556
  C      -1.774765     -0.994899      1.281157
  C      -1.414511     -2.257617      0.817619
  C      -2.402954     -3.187399      0.504118
  C      -3.741283     -2.835649      0.660979
  Cl     -4.993155     -4.002805      0.247106
  C      -4.105440     -1.581461      1.140906
  C      -3.110415     -0.659208      1.460353
  C      -1.208835      1.679445      2.043543
  C      -1.473325      2.797821      1.045497
  O      -0.963786      3.776201      1.990934
  C      -0.590946      2.746650      2.948610
  C       0.270495      0.225890     -0.962306
  O      -1.054123      0.458293     -1.158465
  C      -1.548774      0.643067     -2.480386
  C       1.197636      0.193326     -2.013120
  H       2.758494      1.101172     -4.190649
  H       4.118520      0.017526     -4.576959
  H       2.482688     -0.658666     -4.376669
  H       4.020244     -0.422028     -0.227420
  H       4.337300      0.273737      1.996783
  H       4.141409     -1.497363      1.825781
  H       3.745480     -0.698276      3.369068
  H      -0.370737     -2.519645      0.687101
  H      -2.137910     -4.172716      0.141443
  H      -5.151155     -1.328134      1.264230
  H      -3.351823      0.323034      1.852267
  H      -2.521139      3.007975      0.791105
  H      -0.879413      2.788363      0.121083
  H       0.495438      2.725701      3.112701
  H      -1.092640      2.914490      3.910386
  H      -1.116342      1.534565     -2.946931
  H      -1.353580     -0.235273     -3.103993
  H      -2.623709      0.777876     -2.374107
  H       0.875603      0.357292     -3.029019
43
Coordinates from ORCA-job file E -1856.058470185590
  C       3.184121      0.104455     -4.025883
  O       3.524215     -0.092939     -2.658085
  C       2.541234     -0.042522     -1.717490
  C       2.969159     -0.244886     -0.401953
  C       2.035275     -0.213951      0.631000
  O       2.364288     -0.405202      1.936602
  C       3.732644     -0.591796      2.285404
  C       0.669850      0.005837      0.362300
  S      -0.482630      0.188042      1.810860
  C      -1.774909     -0.994518      1.280854
  C      -1.414165     -2.257757      0.818791
  C      -2.402369     -3.187887      0.505595
  C      -3.740842     -2.836074      0.661424
  Cl     -4.992469     -4.003561      0.247837
  C      -4.105390     -1.581582      1.140089
  C      -3.110635     -0.658751      1.459083
  C      -1.210199      1.679341      2.043969
  C      -1.473244      2.798409      1.046147
  O      -0.969916      3.776500      1.994947
  C      -0.592806      2.746187      2.949955
  C       0.270536      0.225961     -0.962676
  O      -1.053984      0.458730     -1.158724
  C      -1.548813      0.644795     -2.480390
  C       1.197590      0.192970     -2.013595
  H       2.758449      1.099853     -4.191693
  H       4.118612      0.016240     -4.577592
  H       2.482866     -0.660148     -4.377067
  H       4.020399     -0.422277     -0.227940
  H       4.337608      0.273673      1.996560
  H       4.141430     -1.497434      1.825332
  H       3.745705     -0.698450      3.368776
  H      -0.370332     -2.519966      0.689429
  H      -2.136928     -4.173598      0.144296
  H      -5.151213     -1.328262      1.262479
  H      -3.352402      0.323774      1.849931
  H      -2.520146      3.006796      0.786758
  H      -0.874719      2.791272      0.124532
  H       0.494232      2.727311      3.110580
  H      -1.091798      2.911140      3.913592
  H      -1.115921      1.536424     -2.946296
  H      -1.354188     -0.233211     -3.104667
  H      -2.623678      0.780119     -2.373825
  H       0.875583      0.356741     -3.029544
43
Coordinates from ORCA-job file E -1856.058469016745
  C       3.181991      0.098763     -4.026122
  O       3.522560     -0.097544     -2.658316
  C       2.540425     -0.044729     -1.717160
  C       2.968942     -0.246423     -0.401683
  C       2.035441     -0.213867      0.631669
  O       2.365099     -0.404070      1.937237
  C       3.733600     -0.590458      2.285604
  C       0.670174      0.006663      0.363560
  S      -0.482508      0.188193      1.812020
  C      -1.773892     -0.993550      1.280444
  C      -1.411798     -2.256264      0.817379
  C      -2.399105     -3.186708      0.502603
  C      -3.737979     -2.835875      0.657937
  Cl     -4.988602     -4.003769      0.242365
  C      -4.103741     -1.582264      1.137562
  C      -3.109836     -0.658823      1.458122
  C      -1.211044      1.678967      2.045587
  C      -1.475954      2.797424      1.047445
  O      -0.976979      3.776667      1.997152
  C      -0.594197      2.747046      2.950516
  C       0.270358      0.227264     -0.961263
  O      -1.053737      0.461930     -1.156649
  C      -1.549062      0.649462     -2.477899
  C       1.196805      0.192205     -2.012659
  H       2.757156      1.094392     -4.192694
  H       4.116080      0.009232     -4.578295
  H       2.479911     -0.665616     -4.376150
  H       4.020134     -0.424445     -0.228057
  H       4.338464      0.274588      1.995288
  H       4.141873     -1.496794      1.826467
  H       3.747211     -0.695669      3.369102
  H      -0.367741     -2.517767      0.688586
  H      -2.132716     -4.171958      0.140757
  H      -5.149854     -1.329861      1.259344
  H      -3.352674      0.323174      1.849621
  H      -2.522787      3.003237      0.785733
  H      -0.875540      2.791797      0.126882
  H       0.493593      2.731099      3.106906
  H      -1.089788      2.910072      3.916178
  H      -1.113480      1.539534     -2.944253
  H      -1.357904     -0.229359     -3.102108
  H      -2.623368      0.788385     -2.370424
  H       0.874570      0.355518     -3.028634
