43
Coordinates from ORCA-job file
  C   3.18199130861654      0.09876340984790     -4.02612152889856
  O   3.52255985759010     -0.09754418956887     -2.65831603089361
  C   2.54042465120964     -0.04472885663140     -1.71715961721443
  C   2.96894169516522     -0.24642348472505     -0.40168333441865
  C   2.03544105488028     -0.21386656739212      0.63166942852775
  O   2.36509873874591     -0.40406955217264      1.93723656301771
  C   3.73359977097923     -0.59045824295944      2.28560400127444
  C   0.67017403910763      0.00666296667442      0.36355980449478
  S   -0.48250812247016      0.18819318600051      1.81201970786480
  C   -1.77389248088762     -0.99354997457261      1.28044357365873
  C   -1.41179751388502     -2.25626429463182      0.81737928089824
  C   -2.39910540974027     -3.18670768456911      0.50260347526535
  C   -3.73797896431874     -2.83587452564997      0.65793669247414
  Cl  -4.98860158325883     -4.00376857745964      0.24236523312231
  C   -4.10374068641184     -1.58226376242734      1.13756200415652
  C   -3.10983611917231     -0.65882325737194      1.45812224535562
  C   -1.21104360064192      1.67896717126433      2.04558687045737
  C   -1.47595444024801      2.79742360564458      1.04744528425271
  O   -0.97697928530763      3.77666666468806      1.99715150082839
  C   -0.59419670271251      2.74704580059800      2.95051570524158
  C   0.27035841429479      0.22726422547696     -0.96126288204356
  O   -1.05373667489715      0.46192971279101     -1.15664884216261
  C   -1.54906213476216      0.64946160674610     -2.47789866737867
  C   1.19680457460284      0.19220536394338     -2.01265892410767
  H   2.75715643326050      1.09439231302463     -4.19269355564188
  H   4.11607966338213      0.00923175943336     -4.57829455110798
  H   2.47991086147642     -0.66561568714313     -4.37614997145122
  H   4.02013393666036     -0.42444535333177     -0.22805733878661
  H   4.33846350840863      0.27458766362555      1.99528754581550
  H   4.14187304860586     -1.49679448238420      1.82646692164732
  H   3.74721145589626     -0.69566866531859      3.36910212569853
  H   -0.36774130542015     -2.51776683281009      0.68858585967054
  H   -2.13271614017898     -4.17195803467949      0.14075656772962
  H   -5.14985374838277     -1.32986102491424      1.25934383685409
  H   -3.35267411059074      0.32317439619554      1.84962062352906
  H   -2.52278728681626      3.00323667911288      0.78573340956508
  H   -0.87554008591138      2.79179713833112      0.12688169217768
  H   0.49359333425164      2.73109923438238      3.10690587462189
  H   -1.08978827064766      2.91007185368937      3.91617792269776
  H   -1.11348047099281      1.53953447841109     -2.94425265086767
  H   -1.35790351115320     -0.22935898516635     -3.10210804560963
  H   -2.62336758721653      0.78838477313537     -2.37042362940596
  H   0.87456988889071      0.35551803286330     -3.02863418090882
