8
Coordinates from ORCA-job file
  C   0.01486890447258      0.78582757817577     -0.02699992850080
  C   1.08446857938208     -0.15952913180317     -0.03297924827457
  N   0.64937708609977     -1.39283685528682      0.02398790732293
  O   -0.72927142858887     -1.30050700535770      0.06969322759137
  C   -1.08737402438348     -0.00577644549969      0.03860302432505
  H   0.06640376935263      1.86396846322371     -0.06512651242325
  H   2.15193484847702      0.01875695802385     -0.07660696769838
  H   -2.15040773481173      0.18999643852404      0.06942849765765
