8
Coordinates from ORCA-job file E -246.114285627517
  C       0.029100      0.739800     -0.026000
  C       1.079800     -0.150700     -0.033000
  N       0.596900     -1.405800      0.026300
  O      -0.700500     -1.312800      0.069000
  C      -1.089800     -0.059800      0.040500
  H       0.072800      1.819900     -0.063900
  H       2.131200      0.098900     -0.078600
  H      -2.119500      0.270400      0.065700
8
Coordinates from ORCA-job file E -246.124742448622
  C       0.016886      0.780482     -0.026909
  C       1.080985     -0.159529     -0.032814
  N       0.638715     -1.388252      0.024247
  O      -0.720042     -1.301108      0.069382
  C      -1.085113     -0.012517      0.038713
  H       0.064943      1.858795     -0.064866
  H       2.146083      0.023845     -0.076625
  H      -2.142456      0.198184      0.068872
8
Coordinates from ORCA-job file E -246.125083957755
  C       0.015492      0.786179     -0.027029
  C       1.084415     -0.158850     -0.032998
  N       0.645918     -1.392666      0.024104
  O      -0.727274     -1.299540      0.069589
  C      -1.086655     -0.005282      0.038566
  H       0.066080      1.864363     -0.065130
  H       2.152075      0.017820     -0.076584
  H      -2.150049      0.187876      0.069482
8
Coordinates from ORCA-job file E -246.125100814030
  C       0.014734      0.786153     -0.027008
  C       1.084529     -0.159598     -0.032979
  N       0.649159     -1.392381      0.023982
  O      -0.728724     -1.300545      0.069674
  C      -1.087464     -0.005469      0.038595
  H       0.066484      1.864287     -0.065138
  H       2.152179      0.018014     -0.076591
  H      -2.150895      0.189440      0.069466
8
Coordinates from ORCA-job file E -246.125101681988
  C       0.014840      0.785898     -0.027002
  C       1.084524     -0.159577     -0.032981
  N       0.649336     -1.392869      0.023990
  O      -0.729232     -1.300506      0.069693
  C      -1.087402     -0.005671      0.038600
  H       0.066416      1.864036     -0.065128
  H       2.152008      0.018713     -0.076608
  H      -2.150491      0.189875      0.069435
8
Coordinates from ORCA-job file E -246.125101702994
  C       0.014869      0.785828     -0.027000
  C       1.084469     -0.159529     -0.032979
  N       0.649377     -1.392837      0.023988
  O      -0.729271     -1.300507      0.069693
  C      -1.087374     -0.005776      0.038603
  H       0.066404      1.863968     -0.065127
  H       2.151935      0.018757     -0.076607
  H      -2.150408      0.189996      0.069428
