7
Coordinates from ORCA-job file E -116.395627226443
  C       0.015300     -0.981900     -0.808500
  C       0.751200      0.093600     -0.034100
  C      -0.752200     -0.029500      0.086900
  H       1.314800     -0.288400      0.842600
  H       1.092900      0.944800     -0.659200
  H      -1.321900      0.747200     -0.464800
  H      -1.100100     -0.485900      1.037100
7
Coordinates from ORCA-job file E -116.399881775611
  C       0.015259     -0.958709     -0.788877
  C       0.746727      0.105405     -0.023695
  C      -0.748142     -0.017010      0.096720
  H       1.339841     -0.280305      0.808542
  H       1.123575      0.917427     -0.649689
  H      -1.345817      0.715491     -0.450603
  H      -1.131442     -0.482399      1.007603
7
Coordinates from ORCA-job file E -116.401987269150
  C       0.015365     -0.941029     -0.773903
  C       0.738332      0.112569     -0.016578
  C      -0.740084     -0.008486      0.102639
  H       1.372806     -0.271848      0.781290
  H       1.161166      0.897904     -0.642226
  H      -1.378185      0.690281     -0.437434
  H      -1.169400     -0.479491      0.986213
7
Coordinates from ORCA-job file E -116.402419601093
  C       0.015416     -0.941999     -0.774424
  C       0.734531      0.111289     -0.017035
  C      -0.736348     -0.009170      0.101587
  H       1.388118     -0.264918      0.774281
  H       1.177953      0.895049     -0.636775
  H      -1.393184      0.684714     -0.429551
  H      -1.186487     -0.475066      0.981917
7
Coordinates from ORCA-job file E -116.402544035679
  C       0.015452     -0.948692     -0.779706
  C       0.733474      0.107182     -0.020249
  C      -0.735247     -0.013150      0.098187
  H       1.392618     -0.258741      0.774173
  H       1.182990      0.897070     -0.631450
  H      -1.397509      0.685921     -0.423659
  H      -1.191777     -0.469690      0.982704
7
Coordinates from ORCA-job file E -116.402571546927
  C       0.015467     -0.953613     -0.783701
  C       0.733638      0.103839     -0.023078
  C      -0.735369     -0.016545      0.095389
  H       1.391788     -0.255174      0.775747
  H       1.182516      0.899258     -0.628085
  H      -1.396807      0.688192     -0.420522
  H      -1.191234     -0.466058      0.984250
7
Coordinates from ORCA-job file E -116.402573870205
  C       0.015461     -0.954525     -0.784510
  C       0.733923      0.102897     -0.023967
  C      -0.735655     -0.017534      0.094570
  H       1.390702     -0.254473      0.776407
  H       1.181730      0.899840     -0.627328
  H      -1.395987      0.688900     -0.419943
  H      -1.190174     -0.465205      0.984772
7
Coordinates from ORCA-job file E -116.402574094657
  C       0.015451     -0.954442     -0.784510
  C       0.734049      0.102715     -0.024204
  C      -0.735798     -0.017732      0.094377
  H       1.390327     -0.254414      0.776558
  H       1.181645      0.899899     -0.627224
  H      -1.395882      0.688962     -0.419887
  H      -1.189792     -0.465088      0.984889
