7
Coordinates from ORCA-job file
  C   0.01545055556003     -0.95444179639382     -0.78450956157439
  C   0.73404898785882      0.10271511273668     -0.02420384924657
  C   -0.73579758920758     -0.01773245985950      0.09437701945472
  H   1.39032670086814     -0.25441409132925      0.77655824215094
  H   1.18164543345686      0.89989897243433     -0.62722388823110
  H   -1.39588197285399      0.68896240296427     -0.41988650055451
  H   -1.18979211568228     -0.46508814055272      0.98488853800090
