13
Coordinates from ORCA-job file
  C   -0.43492086715527      1.12827851387770     -0.34411289634462
  N   -1.38797929039841      0.11809168352581     -0.87664798536774
  C   -0.83301461500824     -0.94177914607462      0.00693723808117
  C   0.35762261443497     -0.02339864004982      0.26841758097638
  C   1.79040520849519     -0.29731771234913      0.27557097694870
  O   1.07604571925299      0.04387924978612      1.47914736419609
  H   -0.84710228354502      1.78265019966544      0.43654622646552
  H   0.05809565877181      1.73271780394541     -1.11311396827972
  H   -2.36541539437564      0.33336948079059     -0.71523111134306
  H   -0.63932075676784     -1.89417943296380     -0.49811750406946
  H   -1.40479636673191     -1.11879515891390      0.92845427868888
  H   2.14347552991453     -1.32730033256871      0.22799225505454
  H   2.48700484311284      0.46378349132892     -0.07564245500668
