13
Coordinates from ORCA-job file E -286.632443724727
  C      -0.407800      1.068900     -0.515700
  N      -1.600700      0.203400     -0.615000
  C      -0.796600     -0.954200     -0.172800
  C       0.419900     -0.091900     -0.066200
  C       1.792500     -0.265200      0.467500
  O       0.732000      0.080800      1.306600
  H      -0.528400      1.879200      0.240800
  H      -0.096200      1.434400     -1.517300
  H      -2.260700      0.461100      0.157300
  H      -0.699700     -1.705700     -0.985100
  H      -1.154800     -1.380500      0.793300
  H       2.117700     -1.315700      0.614500
  H       2.482900      0.585400      0.292300
13
Coordinates from ORCA-job file E -286.646251029266
  C      -0.411158      1.092090     -0.528936
  N      -1.611429      0.207150     -0.605270
  C      -0.809030     -0.977630     -0.178156
  C       0.413351     -0.085186     -0.033469
  C       1.785959     -0.261904      0.479088
  O       0.751723      0.087154      1.366160
  H      -0.497983      1.904112      0.202011
  H      -0.125581      1.461912     -1.523114
  H      -2.260146      0.457812      0.138105
  H      -0.737439     -1.721066     -0.983699
  H      -1.138224     -1.425845      0.766310
  H       2.143925     -1.286408      0.606120
  H       2.496131      0.547810      0.295051
13
Coordinates from ORCA-job file E -286.651161779573
  C      -0.412312      1.095566     -0.533614
  N      -1.616017      0.209719     -0.595097
  C      -0.811663     -0.981755     -0.181501
  C       0.399572     -0.075131      0.010655
  C       1.774408     -0.258743      0.484772
  O       0.760571      0.092398      1.406633
  H      -0.477305      1.927031      0.174513
  H      -0.132549      1.454157     -1.530863
  H      -2.278244      0.460380      0.132855
  H      -0.741460     -1.714086     -0.993981
  H      -1.129052     -1.462185      0.748813
  H       2.159231     -1.273819      0.591274
  H       2.504921      0.526467      0.285742
13
Coordinates from ORCA-job file E -286.653651681309
  C      -0.414189      1.095206     -0.528096
  N      -1.618580      0.211107     -0.589875
  C      -0.813014     -0.979006     -0.176461
  C       0.384912     -0.064573      0.056772
  C       1.769492     -0.258372      0.481380
  O       0.776183      0.094084      1.435538
  H      -0.477779      1.948523      0.154915
  H      -0.120120      1.431327     -1.529185
  H      -2.297262      0.462115      0.121059
  H      -0.721545     -1.697975     -0.998852
  H      -1.138519     -1.487065      0.737114
  H       2.163638     -1.271998      0.569745
  H       2.506883      0.516628      0.266145
13
Coordinates from ORCA-job file E -286.655164138233
  C      -0.416172      1.095518     -0.516947
  N      -1.618568      0.210299     -0.594769
  C      -0.814236     -0.974984     -0.165937
  C       0.372421     -0.054912      0.099516
  C       1.768528     -0.260119      0.470277
  O       0.798440      0.093555      1.457690
  H      -0.494870      1.965269      0.143761
  H      -0.096187      1.411396     -1.516390
  H      -2.313832      0.461719      0.099758
  H      -0.691093     -1.685067     -0.991556
  H      -1.161113     -1.499128      0.730815
  H       2.162029     -1.274805      0.543582
  H       2.504754      0.511259      0.240398
13
Coordinates from ORCA-job file E -286.656104837842
  C      -0.418507      1.097094     -0.502890
  N      -1.614960      0.206816     -0.611533
  C      -0.816049     -0.970984     -0.152293
  C       0.362469     -0.046611      0.136811
  C       1.769122     -0.263034      0.454078
  O       0.826490      0.091308      1.475433
  H      -0.523324      1.974589      0.144137
  H      -0.066680      1.404895     -1.493969
  H      -2.328134      0.458425      0.064346
  H      -0.659632     -1.682916     -0.970503
  H      -1.190958     -1.496987      0.732273
  H       2.158620     -1.279827      0.513845
  H       2.501643      0.507233      0.210465
13
Coordinates from ORCA-job file E -286.656673288005
  C      -0.420589      1.100129     -0.487469
  N      -1.605410      0.200338     -0.639333
  C      -0.818091     -0.967887     -0.136881
  C       0.355455     -0.040234      0.165977
  C       1.770404     -0.266532      0.435213
  O       0.857137      0.087684      1.487467
  H      -0.557656      1.973584      0.159229
  H      -0.036927      1.418318     -1.463150
  H      -2.342624      0.451957      0.010434
  H      -0.634606     -1.695611     -0.935147
  H      -1.221657     -1.479060      0.743966
  H       2.155626     -1.285412      0.481775
  H       2.499037      0.502726      0.178119
13
Coordinates from ORCA-job file E -286.657061132192
  C      -0.421930      1.104334     -0.471828
  N      -1.589746      0.191898     -0.671704
  C      -0.819856     -0.965997     -0.120828
  C       0.351447     -0.035952      0.186269
  C       1.772364     -0.270207      0.416067
  O       0.886641      0.083182      1.493336
  H      -0.592437      1.963563      0.186210
  H      -0.011513      1.448024     -1.427666
  H      -2.358293      0.443006     -0.059396
  H      -0.619272     -1.719462     -0.890484
  H      -1.248673     -1.449276      0.764086
  H       2.153827     -1.290922      0.450001
  H       2.497541      0.497810      0.146138
13
Coordinates from ORCA-job file E -286.657400574630
  C      -0.422644      1.109015     -0.456296
  N      -1.569742      0.182690     -0.703132
  C      -0.821137     -0.964806     -0.104661
  C       0.349492     -0.033115      0.200437
  C       1.774771     -0.273860      0.397571
  O       0.913944      0.078308      1.494994
  H      -0.625703      1.948076      0.218642
  H       0.008783      1.485278     -1.390392
  H      -2.373865      0.432585     -0.138100
  H      -0.611370     -1.747431     -0.842131
  H      -1.271733     -1.413428      0.787862
  H       2.152620     -1.296215      0.419686
  H       2.496683      0.492903      0.115721
13
Coordinates from ORCA-job file E -286.657736618212
  C      -0.423142      1.113593     -0.440554
  N      -1.546826      0.173167     -0.732420
  C      -0.822137     -0.963616     -0.088281
  C       0.349064     -0.031283      0.210606
  C       1.777518     -0.277427      0.379720
  O       0.939191      0.073148      1.493872
  H      -0.657335      1.928797      0.253686
  H       0.024173      1.525214     -1.352110
  H      -2.387507      0.420903     -0.222651
  H      -0.609154     -1.775677     -0.792363
  H      -1.291611     -1.373825      0.813202
  H       2.151745     -1.301277      0.390662
  H       2.496123      0.488284      0.086830
13
Coordinates from ORCA-job file E -286.658068050765
  C      -0.423922      1.117677     -0.424340
  N      -1.522018      0.163590     -0.759664
  C      -0.823172     -0.961822     -0.071647
  C       0.349992     -0.030144      0.218261
  C       1.780637     -0.280965      0.362292
  O       0.962682      0.067884      1.490948
  H      -0.687545      1.906510      0.290108
  H       0.034817      1.565442     -1.313003
  H      -2.397962      0.407860     -0.311574
  H      -0.611533     -1.802318     -0.742046
  H      -1.309055     -1.331429      0.839046
  H       2.151285     -1.306147      0.362654
  H       2.495894      0.483863      0.059165
13
Coordinates from ORCA-job file E -286.658376213876
  C      -0.425638      1.120909     -0.407547
  N      -1.496182      0.154040     -0.786335
  C      -0.824883     -0.958760     -0.054808
  C       0.352021     -0.029253      0.225753
  C       1.784099     -0.284580      0.344640
  O       0.985681      0.062604      1.487614
  H      -0.717810      1.881964      0.326427
  H       0.041806      1.604518     -1.272548
  H      -2.403353      0.393361     -0.402721
  H      -0.616904     -1.826328     -0.690916
  H      -1.326119     -1.287042      0.863966
  H       2.151397     -1.310889      0.334864
  H       2.495984      0.479456      0.031810
13
Coordinates from ORCA-job file E -286.658643818129
  C      -0.428115      1.123522     -0.390491
  N      -1.468956      0.144454     -0.812488
  C      -0.827196     -0.954769     -0.038071
  C       0.354336     -0.028192      0.234694
  C       1.787319     -0.288273      0.326323
  O       1.009106      0.057495      1.484686
  H      -0.750011      1.855993      0.360717
  H       0.046909      1.642284     -1.230538
  H      -2.401972      0.377722     -0.492604
  H      -0.623407     -1.848082     -0.638751
  H      -1.344885     -1.241539      0.886147
  H       2.151296     -1.315572      0.306749
  H       2.495675      0.474956      0.003827
13
Coordinates from ORCA-job file E -286.658853630460
  C      -0.430746      1.125639     -0.373271
  N      -1.439952      0.134736     -0.837754
  C      -0.829661     -0.950248     -0.021324
  C       0.356249     -0.026880      0.245264
  C       1.789683     -0.291829      0.307523
  O       1.033219      0.052356      1.482086
  H      -0.784534      1.828746      0.392273
  H       0.051176      1.678413     -1.187197
  H      -2.393532      0.361412     -0.579633
  H      -0.630255     -1.867693     -0.585841
  H      -1.365654     -1.195288      0.905146
  H       2.150087     -1.320070      0.277999
  H       2.494020      0.470707     -0.025072
13
Coordinates from ORCA-job file E -286.658985054952
  C      -0.433486      1.127356     -0.355808
  N      -1.409303      0.124813     -0.861890
  C      -0.831950     -0.945194     -0.004443
  C       0.357543     -0.025096      0.257831
  C       1.790858     -0.295266      0.288470
  O       1.058447      0.047403      1.479848
  H      -0.821191      1.800748      0.420690
  H       0.054783      1.712458     -1.142740
  H      -2.378713      0.344574     -0.663289
  H      -0.636614     -1.884688     -0.532728
  H      -1.388175     -1.148946      0.920709
  H       2.147109     -1.324538      0.248592
  H       2.490793      0.466375     -0.055041
13
Coordinates from ORCA-job file E -286.659014438148
  C      -0.435482      1.128381     -0.341608
  N      -1.383338      0.116687     -0.879929
  C      -0.833628     -0.940876      0.009401
  C       0.358094     -0.023353      0.269649
  C       1.790763     -0.297763      0.272879
  O       1.079353      0.042936      1.478492
  H      -0.851935      1.777951      0.440889
  H       0.057730      1.737857     -1.106500
  H      -2.362563      0.330741     -0.728070
  H      -0.641456     -1.896493     -0.490104
  H      -1.407508     -1.111655      0.930886
  H       2.143405     -1.327800      0.223866
  H       2.486665      0.463385     -0.079651
13
Coordinates from ORCA-job file E -286.659015640093
  C      -0.434921      1.128279     -0.344113
  N      -1.387979      0.118092     -0.876648
  C      -0.833015     -0.941779      0.006937
  C       0.357623     -0.023399      0.268418
  C       1.790405     -0.297318      0.275571
  O       1.076046      0.043879      1.479147
  H      -0.847102      1.782650      0.436546
  H       0.058096      1.732718     -1.113114
  H      -2.365415      0.333369     -0.715231
  H      -0.639321     -1.894179     -0.498118
  H      -1.404796     -1.118795      0.928454
  H       2.143476     -1.327300      0.227992
  H       2.487005      0.463783     -0.075642
