17
Coordinates from ORCA-job file
  C   2.02088344693829     -0.23786207292287     -0.09856098816675
  C   1.11006143061286      0.97931525634162      0.18136741399687
  C   -0.06187592908339      0.04286794019122     -0.15644417707458
  C   -1.35369119748949      0.41926606309557     -0.90287449696167
  N   -2.10914452601938     -0.49710072246415     -0.01378292257047
  C   -0.98967297196040     -0.51315288284792      0.95404361098348
  N   0.88801485310383     -0.87237503485873     -0.80997058639924
  H   2.31589386622816     -0.75315511589143      0.82694154496825
  H   2.90877657290378     -0.07701179728638     -0.71929352358159
  H   1.12614152700283      1.40219446142215      1.18963797899142
  H   1.23117990576700      1.77710961021485     -0.55757688405685
  H   -1.60562020412074      1.48347042522307     -0.77561657719516
  H   -1.38221962602458      0.15429899165976     -1.96496297519075
  H   -2.98827455701973     -0.13838437915805      0.34258199646203
  H   -0.74660287298272     -1.50532879331117      1.35634075443317
  H   -1.09993689015446      0.19780678608133      1.78744646279927
  H   0.73608717229814     -1.86185873548887     -0.63917663143742
