17
Coordinates from ORCA-job file E -306.130553220110
  C       1.952400     -0.096100     -0.280800
  C       0.988900      0.913600      0.342500
  C      -0.053600     -0.091900     -0.076100
  C      -1.203300      0.315600     -0.966400
  N      -2.194900     -0.192700     -0.006800
  C      -1.102900     -0.603800      0.887600
  N       0.890100     -1.045600     -0.647500
  H       2.667200     -0.520900      0.461400
  H       2.455900      0.304600     -1.187900
  H       1.108500      0.996600      1.444200
  H       0.944900      1.871600     -0.219100
  H      -1.283900      1.417100     -1.112200
  H      -1.242000     -0.259200     -1.917400
  H      -2.687300      0.625200      0.425500
  H      -1.094900     -1.708000      1.014200
  H      -1.118400     -0.049800      1.853800
  H       0.973300     -1.876200     -0.014900
17
Coordinates from ORCA-job file E -306.143766096919
  C       2.016804     -0.097451     -0.283068
  C       1.016830      0.907149      0.339162
  C      -0.070623     -0.095182     -0.072331
  C      -1.240170      0.326809     -0.979370
  N      -2.241149     -0.182481      0.001354
  C      -1.141195     -0.605598      0.909467
  N       0.915716     -1.040796     -0.633476
  H       2.742123     -0.512640      0.426884
  H       2.530306      0.281175     -1.174094
  H       1.127693      1.018404      1.422756
  H       0.966402      1.864875     -0.188552
  H      -1.313852      1.409397     -1.151535
  H      -1.271443     -0.229779     -1.922639
  H      -2.742640      0.597225      0.414951
  H      -1.128619     -1.694853      1.051312
  H      -1.148709     -0.084012      1.876340
  H       0.982526     -1.862141     -0.037059
17
Coordinates from ORCA-job file E -306.145876970717
  C       2.037441     -0.101248     -0.263421
  C       1.020980      0.904562      0.322538
  C      -0.079143     -0.097343     -0.089017
  C      -1.262690      0.327080     -0.985019
  N      -2.246305     -0.171820      0.019856
  C      -1.138531     -0.600764      0.915147
  N       0.932155     -1.027810     -0.642741
  H       2.752595     -0.516179      0.456217
  H       2.587891      0.260025     -1.137802
  H       1.104902      1.049984      1.403869
  H       0.971851      1.875383     -0.178893
  H      -1.324795      1.404990     -1.181995
  H      -1.307254     -0.223266     -1.930220
  H      -2.777277      0.589151      0.429505
  H      -1.126277     -1.687524      1.070557
  H      -1.116702     -0.100046      1.891449
  H       0.971159     -1.885074     -0.099933
17
Coordinates from ORCA-job file E -306.146497589448
  C       2.044895     -0.109670     -0.237022
  C       1.020999      0.912644      0.304629
  C      -0.079944     -0.091284     -0.105101
  C      -1.279492      0.328990     -0.982402
  N      -2.242183     -0.177895      0.036461
  C      -1.122057     -0.595347      0.919052
  N       0.937911     -1.008710     -0.666396
  H       2.719490     -0.534561      0.516293
  H       2.644766      0.236205     -1.084877
  H       1.081480      1.086939      1.383495
  H       0.986962      1.878756     -0.208792
  H      -1.343122      1.406889     -1.181896
  H      -1.336891     -0.218043     -1.929216
  H      -2.798789      0.563332      0.445377
  H      -1.103911     -1.681261      1.082473
  H      -1.081692     -0.094094      1.895246
  H       0.951575     -1.902790     -0.187223
17
Coordinates from ORCA-job file E -306.146999793574
  C       2.048747     -0.117520     -0.217140
  C       1.022879      0.920939      0.290628
  C      -0.079162     -0.084817     -0.112269
  C      -1.289006      0.332054     -0.976779
  N      -2.236128     -0.189537      0.046684
  C      -1.109033     -0.590236      0.925766
  N       0.939758     -0.989067     -0.684588
  H       2.680398     -0.552244      0.567077
  H       2.692997      0.213317     -1.038921
  H       1.068006      1.124321      1.365373
  H       1.003144      1.875888     -0.243987
  H      -1.357988      1.410854     -1.170710
  H      -1.352265     -0.209037     -1.926822
  H      -2.823376      0.528759      0.453450
  H      -1.081552     -1.674446      1.100161
  H      -1.060429     -0.081445      1.898143
  H       0.933007     -1.917681     -0.275965
17
Coordinates from ORCA-job file E -306.147437788491
  C       2.049436     -0.129200     -0.189326
  C       1.024200      0.931120      0.273513
  C      -0.078228     -0.074240     -0.127338
  C      -1.303727      0.335591     -0.972131
  N      -2.229850     -0.204557      0.059634
  C      -1.089083     -0.587640      0.927095
  N       0.940520     -0.967831     -0.709399
  H       2.628938     -0.578287      0.627481
  H       2.742140      0.186040     -0.976832
  H       1.051683      1.164557      1.342285
  H       1.023312      1.868783     -0.291200
  H      -1.385342      1.415639     -1.155140
  H      -1.374100     -0.197982     -1.926135
  H      -2.833609      0.497184      0.471035
  H      -1.047206     -1.670364      1.108044
  H      -1.034564     -0.070435      1.894752
  H       0.915479     -1.918276     -0.356238
17
Coordinates from ORCA-job file E -306.147841352494
  C       2.048852     -0.143204     -0.166073
  C       1.030082      0.940113      0.256935
  C      -0.077272     -0.061463     -0.138230
  C      -1.316231      0.342402     -0.965492
  N      -2.223174     -0.231946      0.064378
  C      -1.071261     -0.582113      0.930272
  N       0.938819     -0.948291     -0.731118
  H       2.578804     -0.605330      0.677424
  H       2.784609      0.153191     -0.921010
  H       1.044218      1.204710      1.318361
  H       1.048308      1.860962     -0.334630
  H      -1.413598      1.424891     -1.127246
  H      -1.386919     -0.173232     -1.929227
  H      -2.854022      0.444462      0.476974
  H      -1.008214     -1.660755      1.127954
  H      -1.018621     -0.049029      1.889693
  H       0.895619     -1.915267     -0.428865
17
Coordinates from ORCA-job file E -306.148216712108
  C       2.046053     -0.156777     -0.141149
  C       1.035089      0.949353      0.239951
  C      -0.076019     -0.049278     -0.150463
  C      -1.328846      0.348288     -0.958900
  N      -2.215002     -0.256102      0.071042
  C      -1.052092     -0.578267      0.932116
  N       0.938676     -0.927956     -0.754313
  H       2.521948     -0.631825      0.727765
  H       2.824989      0.119237     -0.859436
  H       1.035473      1.247645      1.292197
  H       1.073801      1.850411     -0.380510
  H      -1.441467      1.432347     -1.100309
  H      -1.402188     -0.150430     -1.931403
  H      -2.868677      0.396229      0.486797
  H      -0.969022     -1.652985      1.143338
  H      -1.000844     -0.031823      1.884221
  H       0.878129     -1.907966     -0.500846
17
Coordinates from ORCA-job file E -306.148531027982
  C       2.041585     -0.171487     -0.118238
  C       1.042221      0.957797      0.223075
  C      -0.074776     -0.035643     -0.161733
  C      -1.340591      0.356123     -0.951500
  N      -2.205252     -0.286405      0.073224
  C      -1.033088     -0.572850      0.934043
  N       0.937613     -0.909080     -0.775961
  H       2.464353     -0.658050      0.772147
  H       2.859467      0.081991     -0.800382
  H       1.031123      1.289850      1.264906
  H       1.101983      1.838728     -0.424250
  H      -1.469770      1.441762     -1.066562
  H      -1.414772     -0.119491     -1.935391
  H      -2.885908      0.336334      0.490689
  H      -0.926736     -1.641726      1.163153
  H      -0.987289     -0.009957      1.877097
  H       0.859840     -1.897795     -0.564218
17
Coordinates from ORCA-job file E -306.148775114838
  C       2.034711     -0.186202     -0.095074
  C       1.049527      0.966241      0.205617
  C      -0.073293     -0.021461     -0.174215
  C      -1.352309      0.364576     -0.943828
  N      -2.193364     -0.317279      0.074529
  C      -1.012557     -0.567979      0.934462
  N       0.937109     -0.890797     -0.798177
  H       2.401436     -0.683583      0.814502
  H       2.890153      0.042553     -0.738515
  H       1.027273      1.333894      1.235127
  H       1.131874      1.825075     -0.468627
  H      -1.498256      1.451038     -1.029689
  H      -1.428785     -0.085066     -1.939696
  H      -2.900069      0.273893      0.494591
  H      -0.881987     -1.630340      1.180575
  H      -0.973308      0.010411      1.868612
  H       0.841843     -1.884874     -0.620094
17
Coordinates from ORCA-job file E -306.148936406605
  C       2.025970     -0.201060     -0.075263
  C       1.058570      0.973812      0.188616
  C      -0.071672     -0.005635     -0.186201
  C      -1.362789      0.375527     -0.935499
  N      -2.178552     -0.353572      0.070114
  C      -0.992003     -0.562151      0.933641
  N       0.935130     -0.875620     -0.818640
  H       2.339411     -0.707913      0.849193
  H       2.913948      0.001432     -0.682240
  H       1.027485      1.377196      1.204523
  H       1.164002      1.810074     -0.510582
  H      -1.526859      1.461985     -0.984140
  H      -1.440740     -0.040079     -1.945903
  H      -2.914603      0.199710      0.491473
  H      -0.834051     -1.615926      1.199671
  H      -0.964195      0.033285      1.857716
  H       0.820948     -1.870967     -0.656380
17
Coordinates from ORCA-job file E -306.149044890744
  C       2.022500     -0.203608     -0.074833
  C       1.061075      0.975414      0.185896
  C      -0.070142     -0.000938     -0.188247
  C      -1.362543      0.380477     -0.933062
  N      -2.171914     -0.365304      0.064050
  C      -0.986798     -0.561850      0.931672
  N       0.932165     -0.875311     -0.822774
  H       2.325410     -0.714559      0.850583
  H       2.915662     -0.006280     -0.676474
  H       1.029510      1.389221      1.197962
  H       1.172370      1.802726     -0.522486
  H      -1.533273      1.466496     -0.962995
  H      -1.439370     -0.019474     -1.950109
  H      -2.918677      0.174305      0.485498
  H      -0.819786     -1.612989      1.203352
  H      -0.967425      0.039114      1.852276
  H       0.811235     -1.867342     -0.640208
17
Coordinates from ORCA-job file E -306.149144732622
  C       2.022154     -0.212760     -0.083239
  C       1.074120      0.974485      0.181119
  C      -0.068666      0.010322     -0.183028
  C      -1.360891      0.394940     -0.925143
  N      -2.158245     -0.407137      0.037862
  C      -0.986658     -0.551018      0.934620
  N       0.921301     -0.880630     -0.822460
  H       2.324973     -0.725820      0.840486
  H       2.914630     -0.026275     -0.689667
  H       1.050861      1.399007      1.189356
  H       1.189444      1.796832     -0.532528
  H      -1.548558      1.478878     -0.906561
  H      -1.425478      0.041512     -1.959691
  H      -2.944189      0.084990      0.445664
  H      -0.795567     -1.588264      1.241022
  H      -0.997311      0.075605      1.838831
  H       0.788078     -1.864566     -0.606543
17
Coordinates from ORCA-job file E -306.148323936232
  C       2.012930     -0.206469     -0.097257
  C       1.070439      0.978164      0.203441
  C      -0.060533      0.011967     -0.159509
  C      -1.333893      0.392594     -0.923003
  N      -2.140520     -0.401130      0.029706
  C      -0.991825     -0.551085      0.945282
  N       0.900404     -0.867302     -0.790535
  H       2.322344     -0.723226      0.821466
  H       2.885157      0.005254     -0.731320
  H       1.067695      1.386963      1.219107
  H       1.179903      1.750453     -0.557650
  H      -1.538815      1.472055     -0.888346
  H      -1.382538      0.027117     -1.956541
  H      -2.937586      0.085419      0.429290
  H      -0.796904     -1.588906      1.248929
  H      -1.039172      0.095511      1.832302
  H       0.782916     -1.867280     -0.625261
17
Coordinates from ORCA-job file E -306.149396914842
  C       2.016461     -0.220524     -0.095510
  C       1.086431      0.977721      0.189926
  C      -0.061913      0.023925     -0.162063
  C      -1.344581      0.405920     -0.914181
  N      -2.129998     -0.444652      0.010582
  C      -0.989326     -0.536623      0.947494
  N       0.897996     -0.871254     -0.803317
  H       2.316259     -0.736965      0.826837
  H       2.899465     -0.032694     -0.719220
  H       1.086304      1.400591      1.199484
  H       1.202851      1.762718     -0.560078
  H      -1.564545      1.481163     -0.838868
  H      -1.387263      0.088382     -1.962496
  H      -2.962206     -0.009600      0.395242
  H      -0.772580     -1.556807      1.292001
  H      -1.056860      0.133249      1.817146
  H       0.763504     -1.864450     -0.622879
17
Coordinates from ORCA-job file E -306.149686005794
  C       2.017417     -0.233573     -0.096619
  C       1.102352      0.978413      0.181831
  C      -0.061452      0.037439     -0.159505
  C      -1.350075      0.418134     -0.904504
  N      -2.112361     -0.486303     -0.010024
  C      -0.987833     -0.521140      0.951492
  N       0.890072     -0.871452     -0.808870
  H       2.309548     -0.750378      0.828334
  H       2.906018     -0.065139     -0.716049
  H       1.110764      1.409788      1.187307
  H       1.224294      1.766048     -0.566226
  H      -1.591110      1.485604     -0.785838
  H      -1.384579      0.145467     -1.964923
  H      -2.979096     -0.106836      0.355903
  H      -0.750146     -1.521441      1.336981
  H      -1.085656      0.176426      1.797178
  H       0.741845     -1.860959     -0.626371
17
Coordinates from ORCA-job file E -306.149755986434
  C       2.020814     -0.236668     -0.094714
  C       1.108013      0.980559      0.179370
  C      -0.062018      0.041528     -0.158741
  C      -1.355214      0.417941     -0.903445
  N      -2.113431     -0.492033     -0.009270
  C      -0.988219     -0.517567      0.952533
  N       0.891225     -0.871101     -0.813486
  H       2.309183     -0.751834      0.833102
  H       2.913227     -0.077764     -0.708762
  H       1.121154      1.409377      1.185019
  H       1.229594      1.776317     -0.562259
  H      -1.603079      1.483850     -0.782480
  H      -1.386912      0.147659     -1.963928
  H      -2.985442     -0.122550      0.352993
  H      -0.747409     -1.513719      1.346019
  H      -1.091422      0.186671      1.792549
  H       0.739937     -1.860565     -0.644399
17
Coordinates from ORCA-job file E -306.149761193380
  C       2.020967     -0.238760     -0.098690
  C       1.111139      0.979007      0.180572
  C      -0.062124      0.043899     -0.156314
  C      -1.354084      0.420681     -0.901964
  N      -2.107595     -0.501090     -0.016190
  C      -0.989769     -0.512363      0.954235
  N       0.887439     -0.872581     -0.809935
  H       2.315467     -0.753996      0.826948
  H       2.909266     -0.079210     -0.719253
  H       1.127412      1.404112      1.188000
  H       1.232668      1.776080     -0.559091
  H      -1.607155      1.484184     -0.770812
  H      -1.382420      0.160376     -1.965147
  H      -2.988218     -0.145411      0.339391
  H      -0.745151     -1.502946      1.359343
  H      -1.102284      0.199811      1.786359
  H       0.734442     -1.861694     -0.637352
17
Coordinates from ORCA-job file E -306.149763488991
  C       2.020932     -0.237690     -0.098570
  C       1.109896      0.979189      0.181278
  C      -0.061977      0.042675     -0.156425
  C      -1.353628      0.419354     -0.902862
  N      -2.109398     -0.497119     -0.013971
  C      -0.989825     -0.513549      0.953947
  N       0.888188     -0.872521     -0.809907
  H       2.315954     -0.752977      0.826882
  H       2.908899     -0.076684     -0.719256
  H       1.125790      1.402892      1.189259
  H       1.230857      1.776577     -0.558071
  H      -1.605206      1.483615     -0.775581
  H      -1.382272      0.154654     -1.965019
  H      -2.987832     -0.137257      0.342933
  H      -0.746864     -1.505925      1.355817
  H      -1.099847      0.196812      1.787868
  H       0.736333     -1.861946     -0.638224
17
Coordinates from ORCA-job file E -306.149763868079
  C       2.020883     -0.237862     -0.098561
  C       1.110061      0.979315      0.181367
  C      -0.061876      0.042868     -0.156444
  C      -1.353691      0.419266     -0.902874
  N      -2.109145     -0.497101     -0.013783
  C      -0.989673     -0.513153      0.954044
  N       0.888015     -0.872375     -0.809971
  H       2.315894     -0.753155      0.826942
  H       2.908777     -0.077012     -0.719294
  H       1.126142      1.402194      1.189638
  H       1.231180      1.777110     -0.557577
  H      -1.605620      1.483470     -0.775617
  H      -1.382220      0.154299     -1.964963
  H      -2.988275     -0.138384      0.342582
  H      -0.746603     -1.505329      1.356341
  H      -1.099937      0.197807      1.787446
  H       0.736087     -1.861859     -0.639177
