23
Coordinates from ORCA-job file
  C   -2.18010233600661     -0.61786765681176     -0.10876591372598
  C   -2.13242201806708      0.59485233159877      0.86695710340015
  N   -0.86411745005200      1.30584015504430      0.63092727303259
  C   0.06254851895643      0.29579495610117      0.10480283173834
  C   -0.80138635589202     -0.60576028732339     -0.80208842059500
  C   1.29781469499558      0.90731238664309     -0.57477418017498
  C   2.44789719287118     -0.09402546656390     -0.31087843033784
  N   1.84747883454436     -1.13460742866091      0.54378700292383
  C   0.71202301298582     -0.52279178304389      1.23260039228651
  H   -2.99552738390690     -0.52477227904200     -0.83363236986778
  H   -2.34433778652549     -1.55167003670233      0.43974646366625
  H   -2.97519169300924      1.28151886762734      0.73908996910099
  H   -2.15307744752737      0.24943756613745      1.90733781717960
  H   -1.00680423986947      2.01132849495899     -0.08693146537707
  H   -0.36269833429313     -1.60115468354750     -0.92119943939275
  H   -0.87446922867653     -0.14840578071751     -1.79720749618955
  H   1.51267189742830      1.87117733574894     -0.10005953540363
  H   1.13232146362971      1.08463129950451     -1.64278592582938
  H   3.29102479265530      0.41876585448700      0.17677858586644
  H   2.82467402210428     -0.54534564432101     -1.23585000912593
  H   2.51742510259302     -1.54827008345782      1.18073213490341
  H   0.04967136497263     -1.29437254069471      1.64256048637751
  H   0.99438337608923      0.16858442303519      2.04455312554425
