23
Coordinates from ORCA-job file E -384.882230402117
  C      -2.163800     -0.575800     -0.155100
  C      -2.151400      0.611800      0.805700
  N      -0.824800      1.234900      0.766600
  C       0.070400      0.243100      0.161900
  C      -0.787500     -0.601100     -0.785900
  C       1.267700      0.879200     -0.533600
  C       2.369100     -0.160000     -0.400700
  N       2.044100     -1.032100      0.732000
  C       0.736600     -0.613300      1.243000
  H      -2.953400     -0.458500     -0.929300
  H      -2.343100     -1.519100      0.406500
  H      -2.940100      1.346900      0.527100
  H      -2.356400      0.263500      1.841100
  H      -0.889600      2.062700      0.126500
  H      -0.407100     -1.639700     -0.906200
  H      -0.848600     -0.125400     -1.789800
  H       1.576400      1.801300      0.008500
  H       1.073600      1.140300     -1.596700
  H       3.358200      0.332100     -0.262100
  H       2.410300     -0.777800     -1.323500
  H       2.760000     -0.894900      1.484300
  H       0.129300     -1.507100      1.503600
  H       0.869900     -0.010800      2.171800
23
Coordinates from ORCA-job file E -384.890479586546
  C      -2.174178     -0.604270     -0.147821
  C      -2.169015      0.613167      0.815445
  N      -0.842424      1.249924      0.731115
  C       0.079190      0.260210      0.156678
  C      -0.778273     -0.599237     -0.796177
  C       1.294387      0.902866     -0.518421
  C       2.386302     -0.171452     -0.420738
  N       2.035193     -1.028942      0.731168
  C       0.726604     -0.598628      1.260107
  H      -2.963922     -0.518221     -0.900753
  H      -2.345587     -1.533436      0.405858
  H      -2.946653      1.340690      0.560606
  H      -2.353953      0.287810      1.846373
  H      -0.897020      2.042502      0.102294
  H      -0.374749     -1.609944     -0.919607
  H      -0.818884     -0.126802     -1.785733
  H       1.585020      1.804946      0.034641
  H       1.090236      1.183979     -1.557842
  H       3.379575      0.274126     -0.293297
  H       2.413136     -0.776207     -1.337257
  H       2.734252     -0.933386      1.452342
  H       0.110861     -1.472743      1.510894
  H       0.829703      0.013250      2.165824
23
Coordinates from ORCA-job file E -384.891522300372
  C      -2.153397     -0.624871     -0.145911
  C      -2.166599      0.598978      0.815541
  N      -0.859075      1.269336      0.701985
  C       0.081122      0.283791      0.154818
  C      -0.760430     -0.586253     -0.804667
  C       1.310397      0.920099     -0.497949
  C       2.363621     -0.194727     -0.433262
  N       2.002175     -1.036328      0.728772
  C       0.712796     -0.567325      1.273389
  H      -2.952592     -0.564216     -0.891145
  H      -2.302903     -1.555997      0.410570
  H      -2.964674      1.309600      0.578003
  H      -2.322033      0.274405      1.851214
  H      -0.928074      2.048980      0.054891
  H      -0.332090     -1.584471     -0.942745
  H      -0.807904     -0.101449     -1.788047
  H       1.618666      1.795451      0.087059
  H       1.109479      1.243019     -1.525789
  H       3.377188      0.208155     -0.328772
  H       2.346333     -0.797949     -1.350825
  H       2.717426     -0.980439      1.442213
  H       0.079535     -1.422281      1.542702
  H       0.830831      0.064692      2.163655
23
Coordinates from ORCA-job file E -384.892107484368
  C      -2.135235     -0.640341     -0.146028
  C      -2.165455      0.588508      0.811222
  N      -0.874292      1.286728      0.678366
  C       0.080942      0.303863      0.155210
  C      -0.743584     -0.579157     -0.807627
  C       1.320908      0.935629     -0.479077
  C       2.343309     -0.208291     -0.441682
  N       1.966570     -1.048359      0.717854
  C       0.704447     -0.536214      1.285014
  H      -2.939704     -0.601793     -0.887519
  H      -2.264530     -1.571282      0.416099
  H      -2.983559      1.280471      0.586503
  H      -2.295074      0.264187      1.850482
  H      -0.960677      2.045123      0.008611
  H      -0.295519     -1.567773     -0.953296
  H      -0.799029     -0.087004     -1.787350
  H       1.646470      1.781119      0.139623
  H       1.129122      1.300640     -1.494844
  H       3.373002      0.156530     -0.352431
  H       2.287945     -0.802884     -1.363503
  H       2.695992     -1.048714      1.418015
  H       0.054640     -1.367765      1.585750
  H       0.853111      0.116979      2.156307
23
Coordinates from ORCA-job file E -384.892371179643
  C      -2.123223     -0.650802     -0.146295
  C      -2.165076      0.579419      0.809108
  N      -0.887375      1.300009      0.661995
  C       0.078867      0.319961      0.155422
  C      -0.731494     -0.576444     -0.806451
  C       1.326438      0.947486     -0.467155
  C       2.331546     -0.212798     -0.444786
  N       1.927107     -1.067318      0.696490
  C       0.700978     -0.507215      1.292851
  H      -2.928055     -0.623878     -0.887908
  H      -2.241337     -1.581440      0.418654
  H      -2.998570      1.255936      0.595093
  H      -2.274146      0.253857      1.850190
  H      -0.990822      2.036383     -0.030402
  H      -0.270607     -1.559022     -0.950930
  H      -0.792127     -0.084130     -1.785920
  H       1.662051      1.772113      0.173748
  H       1.145279      1.339725     -1.474618
  H       3.367712      0.131604     -0.346779
  H       2.267353     -0.790985     -1.376145
  H       2.665402     -1.137706      1.384331
  H       0.037857     -1.311514      1.634704
  H       0.892043      0.166959      2.140504
23
Coordinates from ORCA-job file E -384.892490595981
  C      -2.123233     -0.652500     -0.146184
  C      -2.161652      0.573736      0.814657
  N      -0.894002      1.307631      0.649328
  C       0.075542      0.326691      0.151624
  C      -0.730267     -0.579144     -0.804806
  C       1.326355      0.951385     -0.468640
  C       2.336068     -0.206514     -0.437815
  N       1.896601     -1.083105      0.674595
  C       0.700013     -0.490003      1.293809
  H      -2.926954     -0.620374     -0.888934
  H      -2.244596     -1.585030      0.414939
  H      -3.005559      1.242537      0.618588
  H      -2.248122      0.242853      1.856182
  H      -1.011382      2.026868     -0.058965
  H      -0.264663     -1.560270     -0.942441
  H      -0.791375     -0.092540     -1.787137
  H       1.657769      1.775863      0.174354
  H       1.151745      1.344823     -1.476631
  H       3.367104      0.142751     -0.303891
  H       2.302639     -0.768706     -1.380262
  H       2.633252     -1.221739      1.353524
  H       0.030749     -1.274376      1.667882
  H       0.923767      0.199363      2.121923
23
Coordinates from ORCA-job file E -384.892595426634
  C      -2.129515     -0.648615     -0.145559
  C      -2.157316      0.571694      0.822606
  N      -0.896067      1.312627      0.640744
  C       0.071757      0.328046      0.146464
  C      -0.735275     -0.583491     -0.802875
  C       1.323151      0.949942     -0.477291
  C       2.348025     -0.195352     -0.426014
  N       1.878781     -1.090391      0.657214
  C       0.700627     -0.482637      1.290969
  H      -2.931140     -0.602058     -0.889936
  H      -2.261505     -1.583842      0.408849
  H      -3.008452      1.237040      0.647223
  H      -2.221440      0.233257      1.863339
  H      -1.025869      2.016769     -0.080748
  H      -0.270075     -1.565878     -0.931246
  H      -0.795472     -0.105031     -1.789268
  H       1.644145      1.785634      0.156292
  H       1.153239      1.329531     -1.491230
  H       3.365824      0.173666     -0.247406
  H       2.361822     -0.745951     -1.375949
  H       2.608322     -1.292657      1.327645
  H       0.031155     -1.257017      1.684947
  H       0.945080      0.214915      2.106931
23
Coordinates from ORCA-job file E -384.892679243566
  C      -2.139904     -0.642180     -0.144037
  C      -2.154561      0.572987      0.830243
  N      -0.893878      1.311928      0.638504
  C       0.069470      0.323702      0.141647
  C      -0.743661     -0.590721     -0.799420
  C       1.317383      0.945452     -0.490388
  C       2.364897     -0.179910     -0.411771
  N       1.869394     -1.097717      0.638521
  C       0.704965     -0.482595      1.285535
  H      -2.938586     -0.577903     -0.890256
  H      -2.287612     -1.579224      0.403310
  H      -3.006547      1.240904      0.669190
  H      -2.206330      0.228983      1.869828
  H      -1.028362      2.012269     -0.085884
  H      -0.282840     -1.576436     -0.917070
  H      -0.800236     -0.122368     -1.790742
  H       1.622244      1.801709      0.123001
  H       1.146723      1.298500     -1.513608
  H       3.362748      0.216709     -0.183402
  H       2.436788     -0.718425     -1.365801
  H       2.589375     -1.350022      1.302424
  H       0.037537     -1.253396      1.689793
  H       0.960791      0.217954      2.096082
23
Coordinates from ORCA-job file E -384.892731782752
  C      -2.150877     -0.635597     -0.137061
  C      -2.149556      0.577793      0.839059
  N      -0.887355      1.310363      0.635885
  C       0.067399      0.316470      0.132937
  C      -0.757222     -0.596244     -0.799380
  C       1.311882      0.937779     -0.508162
  C       2.386932     -0.160948     -0.392127
  N       1.867153     -1.102963      0.621898
  C       0.706108     -0.491226      1.274504
  H      -2.951181     -0.559007     -0.880354
  H      -2.308205     -1.572698      0.407781
  H      -2.999812      1.250324      0.687975
  H      -2.192310      0.232190      1.878591
  H      -1.024042      2.011576     -0.087377
  H      -0.302290     -1.585237     -0.912178
  H      -0.815243     -0.134673     -1.793749
  H       1.595056      1.819107      0.079252
  H       1.140529      1.256151     -1.542559
  H       3.358130      0.267167     -0.109103
  H       2.525016     -0.686610     -1.345664
  H       2.575872     -1.395885      1.281585
  H       0.040995     -1.264929      1.676945
  H       0.962822      0.207293      2.087002
23
Coordinates from ORCA-job file E -384.892744560386
  C      -2.158088     -0.632251     -0.133350
  C      -2.147997      0.579793      0.844276
  N      -0.884964      1.308656      0.635040
  C       0.066276      0.312903      0.128683
  C      -0.763902     -0.602776     -0.795862
  C       1.307437      0.934540     -0.520677
  C       2.401041     -0.145617     -0.376671
  N       1.852955     -1.114774      0.596405
  C       0.711293     -0.490672      1.268205
  H      -2.958047     -0.548033     -0.876218
  H      -2.323457     -1.568850      0.409856
  H      -2.997060      1.255088      0.699055
  H      -2.185811      0.233516      1.883792
  H      -1.022141      2.012348     -0.085652
  H      -0.311541     -1.593693     -0.901496
  H      -0.820461     -0.148872     -1.793669
  H       1.574733      1.834470      0.045198
  H       1.135062      1.225754     -1.562719
  H       3.347301      0.302086     -0.041884
  H       2.597028     -0.652570     -1.329594
  H       2.550825     -1.453951      1.245902
  H       0.046143     -1.257633      1.683042
  H       0.983176      0.210738      2.074039
23
Coordinates from ORCA-job file E -384.892769998316
  C      -2.165838     -0.627181     -0.127583
  C      -2.143733      0.583783      0.851134
  N      -0.879342      1.307533      0.633791
  C       0.064760      0.307490      0.121912
  C      -0.774987     -0.604988     -0.797013
  C       1.303937      0.926960     -0.536261
  C       2.416475     -0.130944     -0.359060
  N       1.852269     -1.119440      0.582935
  C       0.711728     -0.499378      1.258711
  H      -2.969219     -0.538410     -0.866300
  H      -2.333376     -1.563078      0.416206
  H      -2.991048      1.262547      0.712129
  H      -2.175873      0.236816      1.890684
  H      -1.017781      2.012629     -0.085295
  H      -0.326953     -1.597633     -0.904066
  H      -0.834731     -0.152117     -1.795046
  H       1.555548      1.845787      0.005783
  H       1.132143      1.187493     -1.586343
  H       3.336166      0.338230      0.019295
  H       2.664823     -0.624415     -1.306455
  H       2.541729     -1.483344      1.228316
  H       0.047951     -1.268179      1.672160
  H       0.985151      0.200041      2.066066
23
Coordinates from ORCA-job file E -384.892804367330
  C      -2.172847     -0.622959     -0.118607
  C      -2.139485      0.589452      0.857966
  N      -0.872423      1.306407      0.633462
  C       0.063395      0.301742      0.114618
  C      -0.787446     -0.605760     -0.798586
  C       1.300072      0.917659     -0.554728
  C       2.432415     -0.113072     -0.336280
  N       1.848723     -1.127532      0.562720
  C       0.712791     -0.510162      1.246837
  H      -2.981504     -0.532749     -0.851367
  H      -2.338905     -1.557538      0.427970
  H      -2.984093      1.272342      0.722396
  H      -2.168217      0.243756      1.898057
  H      -1.011630      2.013201     -0.083754
  H      -0.343592     -1.599677     -0.910656
  H      -0.852785     -0.151154     -1.795491
  H       1.533796      1.859179     -0.044902
  H       1.129958      1.138015     -1.614048
  H       3.316263      0.378730      0.096632
  H       2.744622     -0.586222     -1.274655
  H       2.528339     -1.520078      1.202254
  H       0.050113     -1.279563      1.660653
  H       0.992241      0.186185      2.055210
23
Coordinates from ORCA-job file E -384.892855958227
  C      -2.180656     -0.617312     -0.110168
  C      -2.132006      0.594049      0.867406
  N      -0.864476      1.305528      0.630515
  C       0.062542      0.295542      0.105211
  C      -0.800994     -0.606413     -0.801795
  C       1.297355      0.907301     -0.574583
  C       2.447468     -0.094088     -0.310808
  N       1.846673     -1.134691      0.543492
  C       0.712611     -0.521703      1.233480
  H      -2.995446     -0.523342     -0.835650
  H      -2.346222     -1.551251      0.437574
  H      -2.974729      1.280815      0.740521
  H      -2.152188      0.247794      1.907560
  H      -1.006819      2.011596     -0.086856
  H      -0.362305     -1.601872     -0.920328
  H      -0.872767     -0.149360     -1.797093
  H       1.512125      1.871233     -0.100060
  H       1.131312      1.084672     -1.642476
  H       3.291132      0.418262      0.176464
  H       2.823764     -0.545363     -1.235928
  H       2.516885     -1.549002      1.179744
  H       0.050469     -1.292603      1.645039
  H       0.996074      0.170408      2.044437
23
Coordinates from ORCA-job file E -384.892857787093
  C      -2.180102     -0.617868     -0.108766
  C      -2.132422      0.594852      0.866957
  N      -0.864117      1.305840      0.630927
  C       0.062549      0.295795      0.104803
  C      -0.801386     -0.605760     -0.802088
  C       1.297815      0.907312     -0.574774
  C       2.447897     -0.094025     -0.310878
  N       1.847479     -1.134607      0.543787
  C       0.712023     -0.522792      1.232600
  H      -2.995527     -0.524772     -0.833632
  H      -2.344338     -1.551670      0.439746
  H      -2.975192      1.281519      0.739090
  H      -2.153077      0.249438      1.907338
  H      -1.006804      2.011328     -0.086931
  H      -0.362698     -1.601155     -0.921199
  H      -0.874469     -0.148406     -1.797207
  H       1.512672      1.871177     -0.100060
  H       1.132321      1.084631     -1.642786
  H       3.291025      0.418766      0.176779
  H       2.824674     -0.545346     -1.235850
  H       2.517425     -1.548270      1.180732
  H       0.049671     -1.294373      1.642560
  H       0.994383      0.168584      2.044553
