15
Coordinates from ORCA-job file E -341.967924423183
  C      -0.997100      0.617500      0.857400
  N      -1.979900     -0.094200      0.022900
  C      -0.881500     -0.821800     -0.635000
  C       0.142900     -0.116500      0.208900
  C       1.338500      0.552100     -0.344600
  N       2.098500     -0.311800      0.556000
  O       0.950600     -0.904900      1.030700
  H      -0.985600      1.713100      0.656400
  H      -1.122900      0.358600      1.931200
  H      -2.385600      0.585400     -0.663900
  H      -0.940500     -1.911400     -0.422600
  H      -0.801700     -0.577800     -1.718900
  H       1.430100      1.619200     -0.050300
  H       1.527300      0.325500     -1.418000
  H       2.607000     -1.032800     -0.010000
15
Coordinates from ORCA-job file E -341.983404791002
  C      -1.021932      0.632298      0.868319
  N      -2.013565     -0.079617      0.010646
  C      -0.913697     -0.832770     -0.657862
  C       0.135415     -0.122531      0.206816
  C       1.375109      0.555394     -0.352307
  N       2.164368     -0.308823      0.562814
  O       0.961276     -0.935446      1.045684
  H      -1.000757      1.718226      0.710464
  H      -1.140059      0.388746      1.929415
  H      -2.436091      0.569474     -0.643579
  H      -0.970322     -1.909427     -0.463070
  H      -0.828440     -0.628039     -1.733105
  H       1.477910      1.613308     -0.093616
  H       1.557821      0.364328     -1.415695
  H       2.653066     -1.024921      0.025276
15
Coordinates from ORCA-job file E -341.984688733410
  C      -1.026501      0.634891      0.868260
  N      -2.013046     -0.071701      0.003597
  C      -0.920469     -0.832712     -0.662939
  C       0.134572     -0.129969      0.211466
  C       1.381336      0.550404     -0.349827
  N       2.184846     -0.302254      0.567252
  O       0.967971     -0.944012      1.055351
  H      -0.987104      1.723413      0.734662
  H      -1.148701      0.403870      1.931354
  H      -2.478833      0.561825     -0.636695
  H      -0.982519     -1.911536     -0.484548
  H      -0.816044     -0.647466     -1.739935
  H       1.482300      1.613886     -0.114929
  H       1.561855      0.383470     -1.417291
  H       2.660438     -1.031909      0.034423
15
Coordinates from ORCA-job file E -341.984774287895
  C      -1.026209      0.636462      0.867437
  N      -2.009577     -0.067531      0.000005
  C      -0.920601     -0.831418     -0.664816
  C       0.134968     -0.130320      0.211536
  C       1.382783      0.549906     -0.349511
  N       2.189590     -0.300492      0.567629
  O       0.967809     -0.945712      1.056255
  H      -0.981143      1.725892      0.739842
  H      -1.151982      0.402258      1.929889
  H      -2.495902      0.556723     -0.632467
  H      -0.986692     -1.910132     -0.484012
  H      -0.809668     -0.651424     -1.742433
  H       1.482262      1.614604     -0.117367
  H       1.564015      0.384640     -1.417676
  H       2.660446     -1.033259      0.035888
15
Coordinates from ORCA-job file E -341.984783452060
  C      -1.025472      0.637156      0.867234
  N      -2.007254     -0.065668     -0.001559
  C      -0.919865     -0.830920     -0.665567
  C       0.135298     -0.130456      0.211701
  C       1.382575      0.549815     -0.349583
  N       2.190111     -0.299819      0.567631
  O       0.967583     -0.945692      1.056605
  H      -0.978760      1.726701      0.741225
  H      -1.152943      0.400714      1.928961
  H      -2.502461      0.554942     -0.631039
  H      -0.987894     -1.909198     -0.483131
  H      -0.806967     -0.652008     -1.743195
  H       1.481677      1.614472     -0.117500
  H       1.564086      0.383377     -1.417402
  H       2.660386     -1.033215      0.035818
15
Coordinates from ORCA-job file E -341.984784087511
  C      -1.025309      0.637331      0.867201
  N      -2.006692     -0.065213     -0.001978
  C      -0.919601     -0.830828     -0.665697
  C       0.135404     -0.130290      0.211653
  C       1.382538      0.549890     -0.349624
  N       2.189780     -0.299965      0.567590
  O       0.967443     -0.945492      1.056453
  H      -0.978501      1.726936      0.741572
  H      -1.153048      0.400186      1.928756
  H      -2.503650      0.554530     -0.630766
  H      -0.987906     -1.909004     -0.482640
  H      -0.806533     -0.652214     -1.743370
  H       1.481821      1.614480     -0.117322
  H       1.564060      0.382969     -1.417362
  H       2.660292     -1.033115      0.035734
