15
Coordinates from ORCA-job file
  C   -1.02530870023104      0.63733085000571      0.86720089250418
  N   -2.00669173712841     -0.06521291997045     -0.00197784127342
  C   -0.91960099423010     -0.83082813519074     -0.66569733944822
  C   0.13540380471029     -0.13028993919596      0.21165258914106
  C   1.38253836657176      0.54989002638989     -0.34962392035579
  N   2.18978040305371     -0.29996528708585      0.56758989199310
  O   0.96744298761420     -0.94549212824562      1.05645311355957
  H   -0.97850098826017      1.72693550694889      0.74157172850616
  H   -1.15304783468445      0.40018563902930      1.92875609165167
  H   -2.50365006659701      0.55453021944823     -0.63076606097292
  H   -0.98790583744953     -1.90900435693900     -0.48263961958454
  H   -0.80653252473771     -0.65221357930683     -1.74337024888964
  H   1.48182111422336      1.61448023951420     -0.11732202687895
  H   1.56405990827977      0.38296898395508     -1.41736150008737
  H   2.66029209886532     -1.03311511935686      0.03573425013513
