15
Coordinates from ORCA-job file
  C   -1.70135017172407      0.16775506371600     -0.04032199207115
  C   -0.75222861115779     -1.03848428876841     -0.29865713475622
  C   0.43194648031200     -0.13065777613513      0.04018260422788
  C   -0.46977954855988      1.10853787087867      0.10624830264132
  C   1.85088986043357     -0.21722816742081     -0.35770611819104
  N   1.43476487733615     -0.49546092426317      1.03035396832070
  H   -2.38750216385867      0.41581797842731     -0.85484198974382
  H   -2.27741162414003      0.06985649620296      0.88430022910866
  H   -0.75160724490746     -1.38412687649728     -1.33793455440937
  H   -0.86800454050931     -1.89742794049704      0.36858201469439
  H   -0.33341499926392      1.79343383480987     -0.73769022561014
  H   -0.41423063249892      1.68144983707442      1.03913136701504
  H   2.21240847301366     -1.08491073603205     -0.90624101279906
  H   2.37803389679702      0.71356470066955     -0.56620104367956
  H   1.64728594872765      0.29788092783510      1.63099558525237
