15
Coordinates from ORCA-job file E -250.759996471480
  C      -1.651700      0.158300     -0.036400
  C      -0.718000     -1.037900     -0.314300
  C       0.422400     -0.075100     -0.152000
  C      -0.455400      1.118000      0.126800
  C       1.849100     -0.242900     -0.376200
  N       1.301400     -0.445500      0.981000
  H      -2.285200      0.415000     -0.913800
  H      -2.226900      0.034600      0.907400
  H      -0.802500     -1.414300     -1.356200
  H      -0.772200     -1.820000      0.474800
  H      -0.401100      1.874100     -0.685300
  H      -0.381600      1.530800      1.156600
  H       2.137500     -1.199000     -0.860100
  H       2.422800      0.702900     -0.491200
  H       1.561200      0.401000      1.539100
15
Coordinates from ORCA-job file E -250.771831564367
  C      -1.687759      0.161844     -0.032729
  C      -0.734085     -1.037466     -0.317249
  C       0.435120     -0.080396     -0.123132
  C      -0.471869      1.125815      0.116773
  C       1.881725     -0.244085     -0.360631
  N       1.339743     -0.455683      0.990831
  H      -2.329593      0.412973     -0.883875
  H      -2.270641      0.047363      0.887044
  H      -0.828443     -1.420930     -1.340787
  H      -0.768022     -1.826453      0.439305
  H      -0.428738      1.882003     -0.677071
  H      -0.377309      1.560283      1.117856
  H       2.200215     -1.162427     -0.853012
  H       2.461074      0.668623     -0.505675
  H       1.578382      0.368534      1.542553
15
Coordinates from ORCA-job file E -250.775984013043
  C      -1.697982      0.163287     -0.028761
  C      -0.742758     -1.035263     -0.315708
  C       0.439120     -0.093065     -0.083689
  C      -0.475256      1.122167      0.107641
  C       1.884266     -0.239404     -0.352365
  N       1.362588     -0.470197      1.002543
  H      -2.350675      0.413100     -0.869629
  H      -2.294226      0.058889      0.881037
  H      -0.835311     -1.420972     -1.336326
  H      -0.770871     -1.847310      0.414381
  H      -0.427490      1.874780     -0.686651
  H      -0.366043      1.594269      1.089028
  H       2.229403     -1.134464     -0.865300
  H       2.462317      0.667615     -0.525478
  H       1.582717      0.346565      1.569477
15
Coordinates from ORCA-job file E -250.777965713484
  C      -1.699918      0.164574     -0.028252
  C      -0.747266     -1.035447     -0.308927
  C       0.439354     -0.106984     -0.042409
  C      -0.473137      1.116098      0.103907
  C       1.875749     -0.230440     -0.353284
  N       1.384755     -0.482877      1.012664
  H      -2.359268      0.413291     -0.864762
  H      -2.302312      0.068221      0.878861
  H      -0.821127     -1.414306     -1.333973
  H      -0.790834     -1.866677      0.399980
  H      -0.403844      1.853441     -0.703561
  H      -0.368844      1.624968      1.068727
  H       2.233754     -1.111075     -0.883378
  H       2.439647      0.683041     -0.542206
  H       1.593092      0.324172      1.596814
15
Coordinates from ORCA-job file E -250.779039940304
  C      -1.701268      0.166319     -0.033392
  C      -0.749842     -1.036270     -0.301138
  C       0.438051     -0.118943     -0.003308
  C      -0.471142      1.110605      0.105284
  C       1.864656     -0.222420     -0.357792
  N       1.408974     -0.491182      1.020272
  H      -2.366558      0.414194     -0.865275
  H      -2.301238      0.073473      0.875971
  H      -0.793749     -1.404631     -1.331677
  H      -0.822148     -1.879726      0.391455
  H      -0.372276      1.827333     -0.717395
  H      -0.385516      1.648716      1.056558
  H       2.226324     -1.094304     -0.899670
  H       2.410661      0.699649     -0.556662
  H       1.614872      0.307188      1.616970
15
Coordinates from ORCA-job file E -250.779503371393
  C      -1.702215      0.168154     -0.041555
  C      -0.751692     -1.037427     -0.295237
  C       0.435285     -0.129113      0.033257
  C      -0.470020      1.106847      0.108579
  C       1.852938     -0.216496     -0.361575
  N       1.432388     -0.495902      1.027102
  H      -2.376882      0.415971     -0.865612
  H      -2.291808      0.074286      0.874897
  H      -0.760201     -1.394369     -1.330655
  H      -0.858518     -1.889915      0.381947
  H      -0.339079      1.802035     -0.727857
  H      -0.409279      1.669606      1.047498
  H       2.214592     -1.083315     -0.911488
  H       2.382111      0.713323     -0.569284
  H       1.642181      0.296313      1.630183
15
Coordinates from ORCA-job file E -250.779537963225
  C      -1.701488      0.167400     -0.037542
  C      -0.752273     -1.037692     -0.300850
  C       0.432363     -0.130560      0.038199
  C      -0.469655      1.108597      0.103841
  C       1.851979     -0.217482     -0.356182
  N       1.432686     -0.495817      1.031102
  H      -2.390363      0.415340     -0.849441
  H      -2.275341      0.069201      0.888578
  H      -0.753593     -1.382927     -1.340320
  H      -0.866268     -1.898134      0.364635
  H      -0.335270      1.792882     -0.740984
  H      -0.411683      1.684342      1.034756
  H       2.215492     -1.084658     -0.904225
  H       2.380048      0.712754     -0.564723
  H       1.643166      0.296756      1.633356
15
Coordinates from ORCA-job file E -250.779540755696
  C      -1.701510      0.168410     -0.043974
  C      -0.752402     -1.039111     -0.295534
  C       0.432230     -0.131242      0.042346
  C      -0.469866      1.107785      0.109348
  C       1.849793     -0.216245     -0.360275
  N       1.437893     -0.495542      1.029022
  H      -2.383269      0.416684     -0.862388
  H      -2.281766      0.071543      0.877996
  H      -0.749687     -1.388149     -1.333608
  H      -0.870422     -1.895332      0.374993
  H      -0.330452      1.794597     -0.732467
  H      -0.417240      1.677416      1.044521
  H       2.209978     -1.083684     -0.910078
  H       2.375160      0.715408     -0.569561
  H       1.651359      0.297462      1.629858
15
Coordinates from ORCA-job file E -250.779541727499
  C      -1.701350      0.167755     -0.040322
  C      -0.752229     -1.038484     -0.298657
  C       0.431946     -0.130658      0.040183
  C      -0.469780      1.108538      0.106248
  C       1.850890     -0.217228     -0.357706
  N       1.434765     -0.495461      1.030354
  H      -2.387502      0.415818     -0.854842
  H      -2.277412      0.069856      0.884300
  H      -0.751607     -1.384127     -1.337935
  H      -0.868005     -1.897428      0.368582
  H      -0.333415      1.793434     -0.737690
  H      -0.414231      1.681450      1.039131
  H       2.212408     -1.084911     -0.906241
  H       2.378034      0.713565     -0.566201
  H       1.647286      0.297881      1.630996
