23
Coordinates from ORCA-job file
  C   -1.70022494354548      0.93244185740603     -0.07740380324464
  C   -2.35506692314492     -0.46326824244851      0.06620374129016
  N   -1.38480377541298     -1.56773055076278      0.09759903573401
  C   -0.13019814324478     -1.16881826715598      0.72749056338268
  C   0.61600092400131     -0.03227694389536     -0.00152595806083
  C   -0.37413351720997      0.80267602727900     -0.82868786426692
  C   1.90475288790643     -0.37549646297176     -0.79492967039034
  N   2.56591757149196      0.80204826784354     -0.18907192313639
  C   1.54781598405146      0.83294440497629      0.88346642710515
  H   -2.38373354085224      1.61889474208162     -0.59036118963160
  H   -1.50869615034140      1.36546933870043      0.91375304609494
  H   -2.95967769416170     -0.50147432100958      0.98219915831132
  H   -3.03744710025159     -0.64643044955921     -0.77179978432540
  H   -1.20413869332174     -1.90210617672158     -0.84260909489389
  H   -0.36975793117866     -0.84180925321917      1.74936319784074
  H   0.51625550192221     -2.04895605881131      0.82833241444230
  H   0.06738799302858      1.77951804818672     -1.05562023507083
  H   -0.55142087290011      0.30702956217315     -1.79428987293696
  H   1.84221521900452     -0.34452679149662     -1.89014693272584
  H   2.33481194266707     -1.34033212391020     -0.48334935403509
  H   3.52174941003099      0.65865869163173      0.11868877849796
  H   1.19517667427907      1.83647522442488      1.15421227153694
  H   1.84721517718194      0.29726947725866      1.79838704848249
