23
Coordinates from ORCA-job file E -384.848176879431
  C      -1.780900      0.885700     -0.103300
  C      -2.308800     -0.556700      0.085200
  N      -1.247900     -1.584200      0.121500
  C      -0.032000     -1.098000      0.785100
  C       0.605400      0.068000     -0.018000
  C      -0.428600      0.900300     -0.815900
  C       1.833300     -0.318200     -0.843000
  N       2.742200      0.478500     -0.017300
  C       1.600700      0.889800      0.801900
  H      -2.517000      1.480800     -0.685900
  H      -1.667900      1.371900      0.890800
  H      -2.894200     -0.608800      1.028200
  H      -3.012200     -0.795500     -0.742900
  H      -1.006300     -1.863500     -0.858900
  H      -0.297500     -0.752300      1.809300
  H       0.679200     -1.942100      0.913300
  H      -0.091000      1.949100     -0.961900
  H      -0.566400      0.456700     -1.826800
  H       1.816300      0.075300     -1.883400
  H       2.083300     -1.403600     -0.818600
  H       3.335900     -0.175800      0.546200
  H       1.448100      1.988900      0.734700
  H       1.706300      0.553900      1.859600
23
Coordinates from ORCA-job file E -384.857171559346
  C      -1.784516      0.886581     -0.093115
  C      -2.315858     -0.557825      0.088299
  N      -1.263447     -1.582618      0.114022
  C      -0.053672     -1.075004      0.753911
  C       0.615738      0.075191     -0.026512
  C      -0.432385      0.879170     -0.812597
  C       1.857582     -0.328151     -0.865390
  N       2.764564      0.469201      0.001182
  C       1.609276      0.900313      0.831908
  H      -2.513721      1.482790     -0.654049
  H      -1.666069      1.371636      0.885323
  H      -2.886544     -0.622930      1.024418
  H      -3.009373     -0.810259     -0.721767
  H      -1.039604     -1.870027     -0.831463
  H      -0.331973     -0.725979      1.758494
  H       0.653878     -1.902338      0.893340
  H      -0.075844      1.903637     -0.971236
  H      -0.560287      0.433148     -1.809991
  H       1.844579      0.049091     -1.895175
  H       2.083146     -1.402634     -0.875740
  H       3.369462     -0.142329      0.534036
  H       1.454184      1.985088      0.790949
  H       1.680887      0.584447      1.881053
23
Coordinates from ORCA-job file E -384.857890285308
  C      -1.771739      0.892728     -0.078798
  C      -2.321895     -0.546235      0.086766
  N      -1.276694     -1.580252      0.110252
  C      -0.061652     -1.078171      0.741925
  C       0.620210      0.069450     -0.034310
  C      -0.434297      0.861775     -0.822138
  C       1.871301     -0.330403     -0.863946
  N       2.756207      0.503970     -0.006300
  C       1.597915      0.895881      0.842558
  H      -2.500358      1.511064     -0.615202
  H      -1.628306      1.362513      0.903366
  H      -2.899089     -0.617752      1.018025
  H      -3.010220     -0.787937     -0.730730
  H      -1.065026     -1.883710     -0.834963
  H      -0.342034     -0.720811      1.742747
  H       0.641559     -1.906680      0.892737
  H      -0.064834      1.875602     -1.016127
  H      -0.577991      0.392879     -1.806533
  H       1.859323      0.019414     -1.903343
  H       2.101616     -1.404564     -0.859094
  H       3.418636     -0.064240      0.509565
  H       1.423906      1.978564      0.837873
  H       1.663462      0.557114      1.885569
23
Coordinates from ORCA-job file E -384.858294288942
  C      -1.764608      0.897484     -0.072778
  C      -2.327136     -0.538180      0.076779
  N      -1.286863     -1.577837      0.108823
  C      -0.070559     -1.081125      0.742143
  C       0.621333      0.063948     -0.030501
  C      -0.431551      0.855161     -0.822583
  C       1.872629     -0.337416     -0.859073
  N       2.742674      0.537868     -0.028823
  C       1.596360      0.889381      0.851458
  H      -2.489926      1.531886     -0.595098
  H      -1.609359      1.351959      0.914769
  H      -2.918815     -0.612968      0.998694
  H      -3.003939     -0.770089     -0.753382
  H      -1.079773     -1.896126     -0.832138
  H      -0.353814     -0.719699      1.740749
  H       0.627542     -1.912558      0.900072
  H      -0.054886      1.862945     -1.034887
  H      -0.582529      0.372020     -1.798938
  H       1.851280     -0.021331     -1.909405
  H       2.114357     -1.409066     -0.824338
  H       3.467699      0.024740      0.459048
  H       1.403363      1.968851      0.885387
  H       1.676520      0.520352      1.883920
23
Coordinates from ORCA-job file E -384.858668815718
  C      -1.755394      0.902708     -0.069886
  C      -2.332678     -0.527678      0.070433
  N      -1.301049     -1.576110      0.109894
  C      -0.080002     -1.089981      0.742264
  C       0.621295      0.051913     -0.027025
  C      -0.425121      0.847390     -0.823470
  C       1.876334     -0.343873     -0.852894
  N       2.722928      0.577072     -0.052158
  C       1.590160      0.880447      0.858881
  H      -2.475221      1.550404     -0.583602
  H      -1.590671      1.346241      0.921193
  H      -2.936359     -0.599900      0.984897
  H      -3.001219     -0.749796     -0.769221
  H      -1.098070     -1.906212     -0.827737
  H      -0.359998     -0.727051      1.741350
  H       0.610955     -1.927359      0.899946
  H      -0.040415      1.850078     -1.045424
  H      -0.582838      0.356399     -1.794870
  H       1.843450     -0.064237     -1.913558
  H       2.140706     -1.408782     -0.782548
  H       3.505944      0.124572      0.405102
  H       1.372386      1.953681      0.930468
  H       1.694877      0.480273      1.877865
23
Coordinates from ORCA-job file E -384.859061443891
  C      -1.748195      0.907042     -0.069108
  C      -2.337828     -0.518714      0.061082
  N      -1.314302     -1.574703      0.111843
  C      -0.090028     -1.099694      0.747146
  C       0.619588      0.038834     -0.018592
  C      -0.416479      0.843249     -0.819346
  C       1.875619     -0.352366     -0.845107
  N       2.699047      0.611683     -0.079127
  C       1.587667      0.871463      0.864284
  H      -2.460953      1.565107     -0.579727
  H      -1.580923      1.340888      0.925917
  H      -2.956293     -0.587121      0.966045
  H      -2.995188     -0.731995     -0.789818
  H      -1.111068     -1.914509     -0.822068
  H      -0.366674     -0.737849      1.747637
  H       0.593354     -1.943802      0.901742
  H      -0.023784      1.842792     -1.041333
  H      -0.576534      0.351134     -1.789870
  H       1.827114     -0.110669     -1.914922
  H       2.167208     -1.407009     -0.735801
  H       3.536358      0.225193      0.341230
  H       1.345786      1.937242      0.969527
  H       1.726505      0.444006      1.868267
23
Coordinates from ORCA-job file E -384.859451072419
  C      -1.736854      0.912197     -0.067809
  C      -2.342885     -0.506715      0.056825
  N      -1.330765     -1.573480      0.112941
  C      -0.100283     -1.113152      0.747473
  C       0.619194      0.021763     -0.013833
  C      -0.406749      0.834342     -0.819210
  C       1.880907     -0.359436     -0.836674
  N       2.672012      0.653896     -0.104727
  C       1.579676      0.861091      0.869839
  H      -2.442193      1.581245     -0.574476
  H      -1.562831      1.338858      0.929305
  H      -2.970394     -0.568950      0.956137
  H      -2.994958     -0.710581     -0.800531
  H      -1.130710     -1.920030     -0.818907
  H      -0.370706     -0.752577      1.750204
  H       0.574056     -1.965313      0.896867
  H      -0.003949      1.829328     -1.043059
  H      -0.572303      0.340810     -1.788152
  H       1.821369     -0.158882     -1.914502
  H       2.203691     -1.400473     -0.687849
  H       3.552101      0.333250      0.281965
  H       1.310249      1.916108      1.010955
  H       1.752325      0.406901      1.857118
23
Coordinates from ORCA-job file E -384.859730601487
  C      -1.723806      0.914642     -0.067645
  C      -2.347032     -0.495794      0.053388
  N      -1.349137     -1.575081      0.117186
  C      -0.111530     -1.133658      0.753383
  C       0.614929     -0.004634     -0.005284
  C      -0.391288      0.828144     -0.813067
  C       1.883834     -0.369193     -0.827015
  N       2.637912      0.699830     -0.140034
  C       1.567971      0.852049      0.865261
  H      -2.418969      1.589007     -0.580555
  H      -1.551457      1.340516      0.930426
  H      -2.984775     -0.545741      0.946370
  H      -2.994140     -0.691821     -0.809404
  H      -1.142709     -1.914218     -0.815308
  H      -0.370883     -0.779943      1.761473
  H       0.551532     -1.996723      0.887679
  H       0.024524      1.822670     -1.010354
  H      -0.555667      0.355988     -1.793039
  H       1.807580     -0.214029     -1.910436
  H       2.254923     -1.386628     -0.631342
  H       3.541586      0.425834      0.226705
  H       1.262905      1.893513      1.025184
  H       1.793699      0.385469      1.836325
23
Coordinates from ORCA-job file E -384.860158238056
  C      -1.717116      0.920136     -0.066812
  C      -2.350356     -0.486656      0.047810
  N      -1.359154     -1.572104      0.112662
  C      -0.120097     -1.138100      0.750070
  C       0.617265     -0.010108     -0.000934
  C      -0.386355      0.822263     -0.814020
  C       1.887225     -0.375626     -0.818013
  N       2.612358      0.735776     -0.164743
  C       1.568369      0.843007      0.875495
  H      -2.408341      1.603910     -0.572749
  H      -1.538305      1.338620      0.932950
  H      -2.991497     -0.537356      0.938090
  H      -2.994628     -0.676658     -0.818478
  H      -1.158794     -1.919730     -0.818510
  H      -0.379830     -0.785128      1.758207
  H       0.538569     -2.004296      0.885641
  H       0.037194      1.810748     -1.025740
  H      -0.555149      0.338874     -1.787462
  H       1.810342     -0.266647     -1.907204
  H       2.274611     -1.379051     -0.584179
  H       3.545383      0.520857      0.167369
  H       1.249709      1.872015      1.085051
  H       1.818599      0.345452      1.825399
23
Coordinates from ORCA-job file E -384.860373323264
  C      -1.705314      0.926016     -0.066807
  C      -2.354103     -0.473774      0.047852
  N      -1.374943     -1.570401      0.108836
  C      -0.129462     -1.153358      0.745367
  C       0.616334     -0.026320      0.002769
  C      -0.377088      0.812662     -0.816162
  C       1.894420     -0.380183     -0.805890
  N       2.578142      0.777504     -0.190036
  C       1.559940      0.834200      0.878827
  H      -2.389796      1.618396     -0.570234
  H      -1.519545      1.341444      0.933051
  H      -2.994124     -0.519057      0.939279
  H      -3.001835     -0.655790     -0.817598
  H      -1.179766     -1.918014     -0.823338
  H      -0.381892     -0.806972      1.757682
  H       0.520880     -2.027339      0.870953
  H       0.058228      1.795040     -1.031333
  H      -0.551203      0.327256     -1.787679
  H       1.818174     -0.322225     -1.899118
  H       2.313134     -1.358809     -0.523687
  H       3.532494      0.620078      0.113988
  H       1.218834      1.847129      1.127976
  H       1.848490      0.312716      1.805202
23
Coordinates from ORCA-job file E -384.860361306347
  C      -1.709476      0.932150     -0.076175
  C      -2.355354     -0.469439      0.057483
  N      -1.377178     -1.567485      0.094888
  C      -0.130031     -1.155542      0.730069
  C       0.617068     -0.020231      0.001004
  C      -0.380127      0.812293     -0.824304
  C       1.897524     -0.377349     -0.796541
  N       2.572529      0.800787     -0.199206
  C       1.561549      0.833882      0.885537
  H      -2.397188      1.618297     -0.584552
  H      -1.523141      1.360943      0.917462
  H      -2.967184     -0.519298      0.967907
  H      -3.027917     -0.655807     -0.787828
  H      -1.193209     -1.907440     -0.843523
  H      -0.379678     -0.821974      1.747240
  H       0.522675     -2.029766      0.844826
  H       0.059671      1.789590     -1.053649
  H      -0.552608      0.315757     -1.789990
  H       1.836292     -0.361554     -1.892663
  H       2.315767     -1.343599     -0.473446
  H       3.528080      0.644590      0.106730
  H       1.221408      1.836920      1.176297
  H       1.860529      0.284475      1.792331
23
Coordinates from ORCA-job file E -384.860453923579
  C      -1.698500      0.932522     -0.074165
  C      -2.356157     -0.462452      0.061067
  N      -1.386655     -1.567811      0.099926
  C      -0.132608     -1.168367      0.730715
  C       0.615950     -0.034855     -0.000106
  C      -0.372993      0.802634     -0.826388
  C       1.904403     -0.376914     -0.794725
  N       2.559801      0.807592     -0.196672
  C       1.549099      0.830744      0.882906
  H      -2.380631      1.623712     -0.582610
  H      -1.505824      1.358975      0.919664
  H      -2.971097     -0.501871      0.970173
  H      -3.029137     -0.642757     -0.785188
  H      -1.203873     -1.907242     -0.838016
  H      -0.373444     -0.837031      1.750891
  H       0.512469     -2.048958      0.836321
  H       0.070170      1.778913     -1.052374
  H      -0.551809      0.308434     -1.792496
  H       1.840099     -0.354988     -1.890110
  H       2.339542     -1.337177     -0.475855
  H       3.519756      0.674961      0.102928
  H       1.194283      1.831337      1.161521
  H       1.857158      0.290799      1.792494
23
Coordinates from ORCA-job file E -384.860458323279
  C      -1.702031      0.931298     -0.075867
  C      -2.355132     -0.465539      0.062437
  N      -1.382709     -1.568134      0.099474
  C      -0.130095     -1.165420      0.730933
  C       0.615968     -0.030496     -0.000453
  C      -0.374949      0.805304     -0.826042
  C       1.902392     -0.376220     -0.796824
  N       2.568601      0.798034     -0.190268
  C       1.551068      0.833230      0.882577
  H      -2.385881      1.618419     -0.587476
  H      -1.512384      1.361378      0.916928
  H      -2.966310     -0.505444      0.974006
  H      -3.031094     -0.648946     -0.780726
  H      -1.199214     -1.905181     -0.839203
  H      -0.372291     -0.834966      1.751065
  H       0.517342     -2.044284      0.836468
  H       0.065277      1.783325     -1.050406
  H      -0.551014      0.311708     -1.792922
  H       1.837430     -0.342360     -1.891801
  H       2.330280     -1.343148     -0.488782
  H       3.524050      0.650876      0.116821
  H       1.201253      1.838200      1.151546
  H       1.849441      0.298566      1.798417
23
Coordinates from ORCA-job file E -384.860463622916
  C      -1.700225      0.932442     -0.077404
  C      -2.355067     -0.463268      0.066204
  N      -1.384804     -1.567731      0.097599
  C      -0.130198     -1.168818      0.727491
  C       0.616001     -0.032277     -0.001526
  C      -0.374134      0.802676     -0.828688
  C       1.904753     -0.375496     -0.794930
  N       2.565918      0.802048     -0.189072
  C       1.547816      0.832944      0.883466
  H      -2.383734      1.618895     -0.590361
  H      -1.508696      1.365469      0.913753
  H      -2.959678     -0.501474      0.982199
  H      -3.037447     -0.646430     -0.771800
  H      -1.204139     -1.902106     -0.842609
  H      -0.369758     -0.841809      1.749363
  H       0.516256     -2.048956      0.828332
  H       0.067388      1.779518     -1.055620
  H      -0.551421      0.307030     -1.794290
  H       1.842215     -0.344527     -1.890147
  H       2.334812     -1.340332     -0.483349
  H       3.521749      0.658659      0.118689
  H       1.195177      1.836475      1.154212
  H       1.847215      0.297269      1.798387
