45
Coordinates from ORCA-job file E -1359.650555759111
  C       5.666100     -0.007800     -0.124900
  O       4.644200     -0.023100     -1.116500
  C       3.269500      0.044600     -0.842600
  C       2.765500      0.137400      0.466400
  C       1.378600      0.204000      0.696500
  O       0.848100      0.315300      1.991800
  C       1.622100      0.354700      3.185800
  C       0.496100      0.167800     -0.397300
  S      -1.244700      0.241500     -0.138600
  C      -1.949900     -1.276900      0.384900
  C      -2.662800     -2.060100     -0.531200
  C      -3.230100     -3.272100     -0.124900
  C      -3.089000     -3.702100      1.198100
  C      -2.382500     -2.919000      2.116200
  C      -1.814300     -1.706800      1.711700
  C      -1.798600      1.671000      0.783600
  C      -1.477700      2.967800      0.048400
  C      -2.961800      3.217000     -0.168100
  C      -3.286300      1.929200      0.572100
  C       0.990800      0.081700     -1.709000
  O       0.077200      0.057500     -2.776100
  C       0.440100     -0.029000     -4.150000
  C       2.380000      0.019600     -1.919400
  H       6.655100     -0.074200     -0.622700
  H       5.622600      0.939100      0.453800
  H       5.551500     -0.878100      0.555300
  H       3.449400      0.161800      1.301300
  H       0.939600      0.440200      4.055900
  H       2.296400      1.236900      3.175000
  H       2.213100     -0.579800      3.288600
  H      -2.775800     -1.733500     -1.557500
  H      -3.778800     -3.877400     -0.834800
  H      -3.528800     -4.639800      1.512200
  H      -2.277800     -3.249700      3.141400
  H      -1.281300     -1.103400      2.433500
  H      -0.923500      2.836300     -0.907400
  H      -1.019300      3.717200      0.728700
  H      -3.248000      3.174100     -1.241800
  H      -3.327100      4.122000      0.364700
  H      -3.806700      2.116900      1.535700
  H      -3.800700      1.183700     -0.074000
  H       0.995000     -0.972000     -4.339700
  H       1.060800      0.845900     -4.436800
  H      -0.480900     -0.028800     -4.768200
  H       2.784700     -0.049600     -2.920000
45
Coordinates from ORCA-job file E -1359.678903136945
  C       5.509804     -0.044639     -0.072391
  O       4.560951     -0.039965     -1.119312
  C       3.229831      0.035005     -0.851999
  C       2.734455      0.110198      0.455042
  C       1.354502      0.183158      0.667641
  O       0.829343      0.260388      1.916424
  C       1.659942      0.262780      3.059242
  C       0.468885      0.175846     -0.423820
  S      -1.276908      0.265802     -0.199535
  C      -1.937469     -1.256650      0.387714
  C      -2.647846     -2.065620     -0.501573
  C      -3.184684     -3.274832     -0.057862
  C      -3.013919     -3.670637      1.271312
  C      -2.307582     -2.856148      2.160883
  C      -1.768851     -1.646837      1.721408
  C      -1.813621      1.670386      0.767559
  C      -1.489961      2.981574      0.029124
  C      -2.996666      3.228013     -0.170938
  C      -3.319582      1.912442      0.561105
  C       0.979432      0.102906     -1.730169
  O       0.099473      0.103033     -2.765984
  C       0.556859      0.032164     -4.101217
  C       2.357778      0.032534     -1.940377
  H       6.507632     -0.112887     -0.526751
  H       5.446340      0.888172      0.514513
  H       5.356241     -0.915775      0.588023
  H       3.418283      0.112202      1.300601
  H       1.008666      0.325750      3.941593
  H       2.333414      1.137014      3.047334
  H       2.249508     -0.668778      3.113126
  H      -2.780266     -1.756254     -1.537869
  H      -3.737271     -3.908391     -0.749306
  H      -3.434231     -4.614471      1.615631
  H      -2.179356     -3.163201      3.197541
  H      -1.228992     -1.006610      2.417772
  H      -0.941661      2.870155     -0.927610
  H      -1.015919      3.723686      0.696414
  H      -3.290388      3.202494     -1.232196
  H      -3.365531      4.122906      0.357134
  H      -3.845452      2.070080      1.519508
  H      -3.839782      1.176652     -0.084331
  H       1.114759     -0.904872     -4.271774
  H       1.195425      0.900253     -4.339889
  H      -0.324944      0.046890     -4.756001
  H       2.769459     -0.025915     -2.945638
45
Coordinates from ORCA-job file E -1359.689146585794
  C       5.433692     -0.090676     -0.041167
  O       4.515622     -0.052937     -1.111184
  C       3.206241      0.027618     -0.848533
  C       2.697854      0.073806      0.455397
  C       1.314085      0.150463      0.643954
  O       0.764398      0.181302      1.858547
  C       1.593147      0.140063      2.999190
  C       0.440622      0.180794     -0.462637
  S      -1.311646      0.285681     -0.300478
  C      -1.914059     -1.233247      0.382390
  C      -2.611587     -2.092596     -0.465884
  C      -3.108701     -3.294898      0.036892
  C      -2.910430     -3.627299      1.378190
  C      -2.217156     -2.757071      2.224261
  C      -1.717383     -1.554457      1.729121
  C      -1.813949      1.652777      0.731127
  C      -1.488393      2.979534      0.000472
  C      -3.007635      3.235567     -0.174426
  C      -3.330946      1.892169      0.529456
  C       0.976219      0.133308     -1.766735
  O       0.112506      0.166467     -2.787571
  C       0.605550      0.128020     -4.109035
  C       2.355613      0.057353     -1.957493
  H       6.432510     -0.161558     -0.484024
  H       5.371650      0.825705      0.565963
  H       5.258676     -0.970061      0.597589
  H       3.366590      0.045865      1.310362
  H       0.928980      0.165724      3.869295
  H       2.263240      1.012761      3.029301
  H       2.186575     -0.786892      3.022547
  H      -2.761392     -1.824091     -1.513458
  H      -3.653861     -3.972786     -0.621124
  H      -3.300983     -4.568682      1.768507
  H      -2.068341     -3.016414      3.273470
  H      -1.186078     -0.861117      2.382524
  H      -0.950577      2.895731     -0.962126
  H      -0.989123      3.708398      0.658475
  H      -3.313963      3.242105     -1.228194
  H      -3.376011      4.121793      0.360590
  H      -3.864223      2.010554      1.485362
  H      -3.863614      1.176930     -0.124725
  H       1.162718     -0.802912     -4.295106
  H       1.251497      0.995056     -4.315639
  H      -0.266792      0.163457     -4.769395
  H       2.788959      0.018698     -2.953949
45
Coordinates from ORCA-job file E -1359.693766538836
  C       5.427280     -0.099669     -0.059958
  O       4.504158     -0.040804     -1.126131
  C       3.197896      0.033083     -0.853677
  C       2.687303      0.053049      0.449584
  C       1.300879      0.120325      0.636893
  O       0.751944      0.119406      1.848678
  C       1.584256      0.057505      2.987518
  C       0.426048      0.171114     -0.473498
  S      -1.336763      0.279408     -0.369344
  C      -1.909542     -1.229727      0.391236
  C      -2.524529     -2.154924     -0.451584
  C      -3.013626     -3.346694      0.083670
  C      -2.892209     -3.599911      1.449638
  C      -2.289028     -2.659087      2.289302
  C      -1.797388     -1.465610      1.764596
  C      -1.810321      1.613659      0.714261
  C      -1.469000      2.952205     -0.002830
  C      -2.987897      3.233065     -0.171688
  C      -3.328693      1.869417      0.491119
  C       0.972244      0.152381     -1.780256
  O       0.105837      0.207247     -2.795759
  C       0.599993      0.207205     -4.118555
  C       2.351581      0.083497     -1.967582
  H       6.419711     -0.166139     -0.515377
  H       5.373163      0.803802      0.565179
  H       5.253920     -0.988040      0.564810
  H       3.353068      0.010472      1.305683
  H       0.915730      0.056818      3.853930
  H       2.246248      0.933969      3.039013
  H       2.187578     -0.862093      2.990213
  H      -2.614145     -1.942583     -1.519507
  H      -3.494547     -4.076557     -0.570291
  H      -3.277644     -4.533349      1.865557
  H      -2.206195     -2.854765      3.360175
  H      -1.346375     -0.710288      2.406343
  H      -0.929825      2.890851     -0.965570
  H      -0.947139      3.666950      0.652187
  H      -3.294057      3.279366     -1.223894
  H      -3.355737      4.114182      0.370491
  H      -3.886745      1.952943      1.435835
  H      -3.868881      1.180297     -0.183557
  H       1.165007     -0.711942     -4.331051
  H       1.238802      1.082571     -4.305237
  H      -0.277262      0.252163     -4.770271
  H       2.795003      0.065232     -2.960193
45
Coordinates from ORCA-job file E -1359.696255344268
  C       5.414551     -0.123895     -0.067526
  O       4.497025     -0.016029     -1.136636
  C       3.183840      0.046285     -0.869007
  C       2.663348      0.005753      0.428291
  C       1.274306      0.060298      0.611197
  O       0.715163     -0.015349      1.821510
  C       1.532560     -0.142810      2.967263
  C       0.408245      0.163735     -0.499482
  S      -1.360678      0.265353     -0.419986
  C      -1.896247     -1.221385      0.427605
  C      -2.402397     -2.238909     -0.381826
  C      -2.866463     -3.415019      0.208688
  C      -2.830002     -3.558602      1.595054
  C      -2.338465     -2.524027      2.396997
  C      -1.870860     -1.345838      1.817768
  C      -1.812477      1.604949      0.669644
  C      -1.468481      2.938934     -0.062058
  C      -2.982895      3.235810     -0.220521
  C      -3.330290      1.872990      0.434029
  C       0.965060      0.203479     -1.804288
  O       0.102792      0.301564     -2.827546
  C       0.605328      0.364385     -4.147164
  C       2.344864      0.146109     -1.985971
  H       6.409715     -0.177838     -0.520558
  H       5.360746      0.753564      0.594753
  H       5.230856     -1.036208      0.519868
  H       3.322876     -0.077496      1.286393
  H       0.851247     -0.195309      3.822933
  H       2.191932      0.730876      3.078168
  H       2.139450     -1.059635      2.924332
  H      -2.426719     -2.108157     -1.465811
  H      -3.260932     -4.216493     -0.418239
  H      -3.196073     -4.478429      2.055143
  H      -2.325009     -2.634046      3.482718
  H      -1.510192     -0.514834      2.422951
  H      -0.934710      2.875119     -1.028209
  H      -0.925624      3.656911      0.574034
  H      -3.297893      3.297353     -1.270954
  H      -3.345884      4.122165      0.318433
  H      -3.904104      1.947896      1.371557
  H      -3.877746      1.190439     -0.242527
  H       1.179620     -0.540250     -4.396816
  H       1.240615      1.251418     -4.288618
  H      -0.269251      0.432645     -4.801941
  H       2.799357      0.172530     -2.973547
45
Coordinates from ORCA-job file E -1359.698058382370
  C       5.410048     -0.130686     -0.089229
  O       4.495395      0.005479     -1.158083
  C       3.181082      0.051120     -0.887851
  C       2.662091     -0.036924      0.406540
  C       1.272668      0.006011      0.593056
  O       0.713397     -0.114145      1.799161
  C       1.527469     -0.284138      2.941160
  C       0.406446      0.146970     -0.509099
  S      -1.365369      0.246010     -0.425664
  C      -1.895483     -1.224438      0.469252
  C      -2.264793     -2.316910     -0.316841
  C      -2.721175     -3.481426      0.302338
  C      -2.817909     -3.536105      1.692426
  C      -2.469716     -2.424776      2.465976
  C      -2.008393     -1.258112      1.858344
  C      -1.800671      1.610500      0.645460
  C      -1.461825      2.930671     -0.117539
  C      -2.974223      3.235314     -0.259410
  C      -3.320085      1.882173      0.409700
  C       0.961335      0.235141     -1.812711
  O       0.095826      0.371694     -2.830308
  C       0.596602      0.488292     -4.147261
  C       2.340205      0.189241     -2.000021
  H       6.406561     -0.171369     -0.540854
  H       5.352135      0.728489      0.596667
  H       5.224661     -1.058551      0.472988
  H       3.322256     -0.146625      1.261370
  H       0.842573     -0.364775      3.791854
  H       2.189389      0.582982      3.084641
  H       2.132396     -1.200527      2.867884
  H      -2.189565     -2.251930     -1.404385
  H      -3.008452     -4.341133     -0.305122
  H      -3.180468     -4.445281      2.175480
  H      -2.565169     -2.465139      3.552444
  H      -1.762071     -0.364382      2.430692
  H      -0.939891      2.850743     -1.089157
  H      -0.898781      3.659538      0.488804
  H      -3.305659      3.296452     -1.305442
  H      -3.329251      4.131079      0.269889
  H      -3.898995      1.961822      1.344646
  H      -3.875869      1.193563     -0.254324
  H       1.176330     -0.402599     -4.432138
  H       1.228136      1.383209     -4.252199
  H      -0.279185      0.577737     -4.798041
  H       2.796096      0.255742     -2.984994
45
Coordinates from ORCA-job file E -1359.699549206955
  C       5.381285     -0.146636     -0.076328
  O       4.482206      0.038306     -1.151773
  C       3.160211      0.056328     -0.901219
  C       2.622527     -0.106721      0.378140
  C       1.230257     -0.079250      0.545029
  O       0.645840     -0.256966      1.734288
  C       1.429521     -0.474512      2.888332
  C       0.383180      0.117073     -0.558039
  S      -1.387268      0.208690     -0.461310
  C      -1.880423     -1.233653      0.506272
  C      -2.143070     -2.400732     -0.213049
  C      -2.566418     -3.542434      0.468984
  C      -2.739552     -3.499271      1.853154
  C      -2.497903     -2.315446      2.555380
  C      -2.067453     -1.171256      1.884375
  C      -1.779563      1.612491      0.583218
  C      -1.447960      2.910048     -0.218494
  C      -2.955391      3.239681     -0.309028
  C      -3.299775      1.902852      0.383457
  C       0.951595      0.280661     -1.846198
  O       0.097605      0.474894     -2.867909
  C       0.611761      0.672737     -4.170364
  C       2.333455      0.253255     -2.016210
  H       6.386576     -0.155054     -0.510628
  H       5.301891      0.675477      0.652096
  H       5.194727     -1.104399      0.433267
  H       3.269502     -0.257406      1.237125
  H       0.722766     -0.594789      3.716443
  H       2.085093      0.386663      3.088242
  H       2.039127     -1.385977      2.790540
  H      -2.015995     -2.410512     -1.297651
  H      -2.771084     -4.460181     -0.083996
  H      -3.076702     -4.389933      2.385789
  H      -2.648170     -2.282552      3.635814
  H      -1.889418     -0.223233      2.393152
  H      -0.963374      2.800445     -1.206875
  H      -0.845211      3.642413      0.345076
  H      -3.327148      3.305368     -1.341912
  H      -3.276337      4.146890      0.223752
  H      -3.859895      1.996800      1.329720
  H      -3.881258      1.211612     -0.256374
  H       1.203469     -0.195739     -4.498188
  H       1.237450      1.577386     -4.210722
  H      -0.255519      0.794029     -4.827893
  H       2.804940      0.382551     -2.987386
45
Coordinates from ORCA-job file E -1359.700729235419
  C       5.357290     -0.155686     -0.086171
  O       4.462294      0.091321     -1.152087
  C       3.139569      0.073775     -0.909316
  C       2.597148     -0.162900      0.357236
  C       1.203800     -0.153692      0.515393
  O       0.612470     -0.384701      1.689902
  C       1.388315     -0.627784      2.842671
  C       0.361902      0.080576     -0.585099
  S      -1.406833      0.158262     -0.469388
  C      -1.878180     -1.258180      0.547906
  C      -2.028679     -2.481368     -0.105831
  C      -2.433221     -3.598404      0.626421
  C      -2.702553     -3.473975      1.991026
  C      -2.572124     -2.235317      2.623663
  C      -2.158886     -1.115705      1.902727
  C      -1.776848      1.604775      0.527921
  C      -1.412952      2.871013     -0.305692
  C      -2.910257      3.243441     -0.386690
  C      -3.288411      1.926197      0.323480
  C       0.933070      0.318773     -1.857126
  O       0.080895      0.564794     -2.867173
  C       0.598586      0.849376     -4.151597
  C       2.316608      0.319039     -2.018126
  H       6.365983     -0.101097     -0.508384
  H       5.247794      0.602043      0.705174
  H       5.194975     -1.156409      0.342529
  H       3.239108     -0.348665      1.213283
  H       0.674312     -0.800382      3.655292
  H       2.019445      0.240160      3.087091
  H       2.021587     -1.519377      2.716152
  H      -1.832163     -2.555435     -1.177882
  H      -2.550737     -4.561275      0.127462
  H      -3.023183     -4.345979      2.563556
  H      -2.790822     -2.141280      3.688864
  H      -2.045794     -0.127138      2.353070
  H      -0.943153      2.720996     -1.295857
  H      -0.779943      3.597175      0.232058
  H      -3.292090      3.316740     -1.415140
  H      -3.197598      4.163669      0.142631
  H      -3.850930      2.043631      1.265865
  H      -3.882622      1.238370     -0.308265
  H       1.202070      0.009014     -4.527188
  H       1.213571      1.762039     -4.130943
  H      -0.265725      1.001260     -4.806275
  H       2.793013      0.508311     -2.977042
45
Coordinates from ORCA-job file E -1359.701370543837
  C       5.328646     -0.107432     -0.100491
  O       4.429453      0.107024     -1.169000
  C       3.110122      0.076139     -0.924331
  C       2.571592     -0.150630      0.346442
  C       1.178330     -0.146355      0.503613
  O       0.588280     -0.346713      1.681403
  C       1.366943     -0.544271      2.839978
  C       0.334608      0.062831     -0.603476
  S      -1.430872      0.136941     -0.469038
  C      -1.890961     -1.294514      0.526880
  C      -1.934660     -2.533401     -0.109757
  C      -2.337180     -3.653357      0.618713
  C      -2.713244     -3.515475      1.956933
  C      -2.688004     -2.260444      2.569684
  C      -2.275119     -1.138168      1.853800
  C      -1.764671      1.574027      0.554508
  C      -1.323851      2.847221     -0.226357
  C      -2.799524      3.304733     -0.290891
  C      -3.254681      1.971184      0.342230
  C       0.901427      0.293187     -1.875562
  O       0.045053      0.515701     -2.883179
  C       0.560091      0.766632     -4.174976
  C       2.285177      0.298094     -2.036582
  H       6.335543     -0.032082     -0.522968
  H       5.200935      0.656575      0.681454
  H       5.191842     -1.106822      0.340163
  H       3.213847     -0.319874      1.205682
  H       0.653837     -0.700824      3.656411
  H       1.987081      0.338257      3.058466
  H       2.010431     -1.431598      2.741266
  H      -1.657240     -2.620347     -1.163283
  H      -2.368076     -4.632263      0.137597
  H      -3.030035     -4.391194      2.526417
  H      -2.983260     -2.156994      3.615613
  H      -2.215218     -0.136870      2.290916
  H      -0.863847      2.707444     -1.221728
  H      -0.652029      3.513642      0.340214
  H      -3.172194      3.464603     -1.312302
  H      -3.036008      4.203311      0.296402
  H      -3.832264      2.064233      1.277715
  H      -3.861294      1.344016     -0.338470
  H       1.151921     -0.088911     -4.533125
  H       1.184478      1.672883     -4.179029
  H      -0.304950      0.912936     -4.829263
  H       2.759645      0.476926     -2.998588
45
Coordinates from ORCA-job file E -1359.702084363249
  C       5.314344     -0.073951     -0.115441
  O       4.407553      0.145555     -1.176229
  C       3.090161      0.099828     -0.927237
  C       2.557752     -0.175481      0.336854
  C       1.164718     -0.187523      0.497531
  O       0.580961     -0.441543      1.667934
  C       1.367291     -0.687671      2.812692
  C       0.315981      0.052483     -0.603136
  S      -1.449486      0.102656     -0.464489
  C      -1.885353     -1.311430      0.560804
  C      -1.847214     -2.576162     -0.021495
  C      -2.243990     -3.677866      0.737037
  C      -2.695754     -3.498635      2.046534
  C      -2.750470     -2.218672      2.603689
  C      -2.341714     -1.113183      1.859442
  C      -1.804375      1.561822      0.515803
  C      -1.287153      2.816544     -0.245949
  C      -2.742957      3.334188     -0.343504
  C      -3.269489      1.998480      0.231289
  C       0.877751      0.328239     -1.867622
  O       0.015028      0.570495     -2.864725
  C       0.523552      0.849770     -4.153569
  C       2.261425      0.346705     -2.030656
  H       6.317657      0.022338     -0.542417
  H       5.182330      0.676835      0.678295
  H       5.193275     -1.081618      0.311181
  H       3.203361     -0.374645      1.186952
  H       0.659143     -0.872470      3.627322
  H       1.991873      0.183779      3.060180
  H       2.006489     -1.572697      2.676295
  H      -1.509642     -2.698973     -1.053929
  H      -2.209022     -4.678230      0.301770
  H      -3.010032     -4.361382      2.637003
  H      -3.105307     -2.082558      3.627204
  H      -2.326001     -0.093384      2.255729
  H      -0.813391      2.661964     -1.232027
  H      -0.602973      3.451161      0.341607
  H      -3.076324      3.545227     -1.369053
  H      -2.961397      4.218008      0.271720
  H      -3.897855      2.085603      1.133788
  H      -3.847037      1.402976     -0.500993
  H       1.107916     -0.000196     -4.535864
  H       1.151899      1.752876     -4.143444
  H      -0.345225      1.015786     -4.798029
  H       2.731799      0.554955     -2.988749
45
Coordinates from ORCA-job file E -1359.702776083338
  C       5.298609     -0.097762     -0.137274
  O       4.387598      0.135924     -1.191397
  C       3.070550      0.100754     -0.934434
  C       2.544278     -0.186388      0.329542
  C       1.151940     -0.199473      0.498520
  O       0.574111     -0.472735      1.669342
  C       1.368232     -0.741915      2.804868
  C       0.298445      0.050479     -0.596818
  S      -1.467694      0.078647     -0.464668
  C      -1.875948     -1.325337      0.583415
  C      -1.754316     -2.605537      0.047978
  C      -2.137885     -3.697782      0.826467
  C      -2.659866     -3.497759      2.106349
  C      -2.793943     -2.204200      2.617218
  C      -2.396575     -1.105772      1.854917
  C      -1.857004      1.546807      0.481374
  C      -1.266710      2.796334     -0.232660
  C      -2.701705      3.366634     -0.363273
  C      -3.291484      2.018460      0.115510
  C       0.854917      0.343804     -1.860794
  O      -0.013980      0.608712     -2.848707
  C       0.487359      0.920266     -4.133636
  C       2.237714      0.364994     -2.029836
  H       6.299980     -0.006324     -0.570518
  H       5.178669      0.649128      0.662424
  H       5.171305     -1.107050      0.283464
  H       3.194766     -0.399855      1.172370
  H       0.666291     -0.930421      3.623766
  H       2.002416      0.121126      3.056833
  H       1.998583     -1.630429      2.651096
  H      -1.358511     -2.748209     -0.960879
  H      -2.034834     -4.709401      0.429901
  H      -2.968156     -4.354678      2.708200
  H      -3.208429     -2.051331      3.615587
  H      -2.442386     -0.074126      2.214563
  H      -0.773725      2.648730     -1.210366
  H      -0.579466      3.393324      0.389667
  H      -2.984532      3.646794     -1.387500
  H      -2.917307      4.218713      0.295733
  H      -3.983250      2.079934      0.972843
  H      -3.819559      1.466306     -0.685127
  H       1.069676      0.080510     -4.541234
  H       1.114736      1.823498     -4.106988
  H      -0.385998      1.102683     -4.767785
  H       2.703186      0.583924     -2.987951
45
Coordinates from ORCA-job file E -1359.703504137096
  C       5.287435     -0.141753     -0.159293
  O       4.373770      0.101768     -1.209335
  C       3.055886      0.083817     -0.944007
  C       2.535225     -0.188525      0.325227
  C       1.143930     -0.193317      0.505698
  O       0.571518     -0.454220      1.684659
  C       1.373604     -0.729512      2.814672
  C       0.286304      0.052511     -0.584670
  S      -1.480812      0.069447     -0.466669
  C      -1.864917     -1.334021      0.594356
  C      -1.671731     -2.618976      0.090096
  C      -2.042958     -3.711261      0.874036
  C      -2.623407     -3.510981      2.128145
  C      -2.825522     -2.214663      2.608735
  C      -2.440310     -1.113560      1.841946
  C      -1.908800      1.537737      0.450624
  C      -1.261016      2.792601     -0.197892
  C      -2.678427      3.404243     -0.344779
  C      -3.311601      2.039621      0.016982
  C       0.837552      0.343648     -1.853622
  O      -0.037719      0.623883     -2.834423
  C       0.454960      0.946016     -4.120744
  C       2.218522      0.356785     -2.033304
  H       6.287717     -0.062667     -0.598116
  H       5.180883      0.606711      0.641392
  H       5.148816     -1.149092      0.262136
  H       3.191562     -0.399053      1.164225
  H       0.678922     -0.901202      3.643282
  H       2.024228      0.125328      3.052397
  H       1.988397     -1.628743      2.658093
  H      -1.226899     -2.764306     -0.897605
  H      -1.885151     -4.724076      0.499539
  H      -2.925918     -4.369657      2.730015
  H      -3.289084     -2.061782      3.585172
  H      -2.547503     -0.078974      2.176844
  H      -0.755721      2.669575     -1.173334
  H      -0.572564      3.350421      0.458901
  H      -2.915818      3.764691     -1.355482
  H      -2.899793      4.208957      0.369412
  H      -4.064585      2.062367      0.823518
  H      -3.779975      1.541260     -0.853300
  H       1.026304      0.107020     -4.545710
  H       1.090165      1.843777     -4.089559
  H      -0.423533      1.145508     -4.743193
  H       2.678164      0.572647     -2.994968
45
Coordinates from ORCA-job file E -1359.704429476581
  C       5.265689     -0.156227     -0.171818
  O       4.351772      0.084414     -1.222721
  C       3.033054      0.071728     -0.955290
  C       2.514365     -0.189037      0.316792
  C       1.123664     -0.190219      0.502006
  O       0.551952     -0.431174      1.686663
  C       1.356332     -0.698255      2.817608
  C       0.265271      0.044092     -0.586767
  S      -1.501708      0.053950     -0.473752
  C      -1.860373     -1.351316      0.599982
  C      -1.605007     -2.636798      0.123515
  C      -1.959263     -3.729909      0.913683
  C      -2.584693     -3.532884      2.146711
  C      -2.847749     -2.237731      2.598797
  C      -2.480586     -1.134246      1.825564
  C      -1.947173      1.523202      0.422106
  C      -1.232656      2.776034     -0.148424
  C      -2.624315      3.441759     -0.304584
  C      -3.308378      2.075421     -0.068104
  C       0.813679      0.332942     -1.858398
  O      -0.064886      0.619022     -2.835606
  C       0.423231      0.947933     -4.122034
  C       2.193487      0.343249     -2.043637
  H       6.266205     -0.080619     -0.610892
  H       5.160099      0.595318      0.626309
  H       5.124541     -1.161692      0.253360
  H       3.173496     -0.390329      1.155957
  H       0.664080     -0.856264      3.650967
  H       2.013388      0.155196      3.042596
  H       1.964878     -1.603034      2.667376
  H      -1.125077     -2.780924     -0.847776
  H      -1.754048     -4.741206      0.558827
  H      -2.873988     -4.393453      2.752053
  H      -3.344368     -2.087627      3.559172
  H      -2.638488     -0.099610      2.139113
  H      -0.715338      2.677068     -1.121021
  H      -0.538225      3.282186      0.543629
  H      -2.812256      3.888990     -1.290966
  H      -2.847419      4.192726      0.465488
  H      -4.117765      2.068722      0.682437
  H      -3.719650      1.641680     -1.000146
  H       0.989272      0.110312     -4.556947
  H       1.062384      1.842968     -4.086064
  H      -0.457485      1.157507     -4.738266
  H       2.650155      0.556133     -3.007401
45
Coordinates from ORCA-job file E -1359.705238060186
  C       5.245809     -0.195694     -0.175809
  O       4.336620      0.041617     -1.232344
  C       3.015474      0.041789     -0.966892
  C       2.494389     -0.190348      0.308992
  C       1.104156     -0.178053      0.496774
  O       0.528622     -0.375462      1.689185
  C       1.330836     -0.621054      2.827124
  C       0.248994      0.035978     -0.592234
  S      -1.518119      0.051563     -0.489930
  C      -1.852775     -1.360690      0.593525
  C      -1.544536     -2.642411      0.134605
  C      -1.878699     -3.741248      0.925021
  C      -2.536889     -3.556705      2.143119
  C      -2.852072     -2.267616      2.576536
  C      -2.507200     -1.157176      1.801834
  C      -1.972572      1.516351      0.393060
  C      -1.222189      2.773171     -0.107597
  C      -2.598476      3.474409     -0.232411
  C      -3.306277      2.107236     -0.114625
  C       0.798380      0.308912     -1.868688
  O      -0.079696      0.601353     -2.846018
  C       0.408122      0.931107     -4.132325
  C       2.176860      0.307310     -2.058400
  H       6.248873     -0.130945     -0.610924
  H       5.140895      0.562679      0.616230
  H       5.094804     -1.196670      0.256760
  H       3.154316     -0.372913      1.151992
  H       0.638109     -0.752772      3.664791
  H       1.996225      0.231625      3.030326
  H       1.931004     -1.534814      2.696039
  H      -1.039891     -2.777447     -0.825306
  H      -1.634997     -4.746781      0.578845
  H      -2.809474     -4.422472      2.748295
  H      -3.370125     -2.127237      3.526790
  H      -2.715078     -0.127375      2.101212
  H      -0.718062      2.710996     -1.091409
  H      -0.510211      3.232718      0.600011
  H      -2.765048      4.010166     -1.178198
  H      -2.817074      4.157889      0.599648
  H      -4.153930      2.063521      0.591634
  H      -3.671645      1.741561     -1.094451
  H       0.967123      0.091982     -4.573862
  H       1.054791      1.821036     -4.090894
  H      -0.472395      1.153118     -4.744885
  H       2.633129      0.507799     -3.025046
45
Coordinates from ORCA-job file E -1359.706622381473
  C       5.232196     -0.132753     -0.205906
  O       4.306298      0.088260     -1.249633
  C       2.993675      0.075452     -0.970506
  C       2.483670     -0.164664      0.309986
  C       1.093393     -0.168360      0.500254
  O       0.530722     -0.376088      1.692673
  C       1.345736     -0.614655      2.821531
  C       0.227588      0.033768     -0.593945
  S      -1.538107      0.021376     -0.470311
  C      -1.871553     -1.396344      0.602625
  C      -1.551446     -2.675020      0.150617
  C      -1.886089     -3.770552      0.946141
  C      -2.555084     -3.581965      2.158907
  C      -2.882180     -2.293795      2.585211
  C      -2.537628     -1.189209      1.804698
  C      -2.023194      1.494762      0.383897
  C      -1.175452      2.734940      0.021426
  C      -2.504101      3.495889     -0.215938
  C      -3.266282      2.150226     -0.258147
  C       0.768225      0.311314     -1.868536
  O      -0.118942      0.574848     -2.839604
  C       0.356709      0.892727     -4.132434
  C       2.147365      0.324937     -2.059850
  H       6.226689     -0.061766     -0.658123
  H       5.134240      0.631439      0.580110
  H       5.099947     -1.131376      0.237546
  H       3.147177     -0.343471      1.150734
  H       0.660196     -0.755762      3.662952
  H       2.002483      0.244527      3.023077
  H       1.955214     -1.520718      2.688460
  H      -1.040113     -2.813137     -0.805518
  H      -1.629136     -4.778544      0.615219
  H      -2.825547     -4.445165      2.769897
  H      -3.406269     -2.148686      3.531979
  H      -2.745585     -0.156729      2.098996
  H      -0.571216      2.682001     -0.902989
  H      -0.523977      3.129457      0.820426
  H      -2.540102      4.087876     -1.140240
  H      -2.794091      4.140780      0.624820
  H      -4.197969      2.100937      0.330375
  H      -3.510466      1.843307     -1.294662
  H       0.920730      0.052657     -4.563568
  H       0.993370      1.789474     -4.110330
  H      -0.529169      1.093169     -4.743106
  H       2.598177      0.524637     -3.029113
45
Coordinates from ORCA-job file E -1359.708065002154
  C       5.212110     -0.105641     -0.224635
  O       4.279549      0.098582     -1.264900
  C       2.971448      0.084520     -0.980385
  C       2.465068     -0.137082      0.305752
  C       1.074602     -0.142681      0.495081
  O       0.515330     -0.326651      1.690339
  C       1.333108     -0.543205      2.820545
  C       0.205146      0.032414     -0.606242
  S      -1.559224      0.007094     -0.467934
  C      -1.880970     -1.421638      0.597073
  C      -1.544895     -2.694708      0.144613
  C      -1.870572     -3.793888      0.939165
  C      -2.544840     -3.612067      2.151113
  C      -2.888447     -2.328703      2.577345
  C      -2.555043     -1.222535      1.795881
  C      -2.063528      1.479838      0.369499
  C      -1.150646      2.703771      0.156019
  C      -2.433092      3.519261     -0.140659
  C      -3.217158      2.202177     -0.357986
  C       0.742958      0.293379     -1.882882
  O      -0.146801      0.527814     -2.855053
  C       0.324884      0.822928     -4.153904
  C       2.122741      0.309944     -2.073682
  H       6.202965     -0.037209     -0.684291
  H       5.116917      0.668410      0.551191
  H       5.087613     -1.098824      0.232856
  H       3.129090     -0.297562      1.149714
  H       0.648511     -0.671385      3.664531
  H       1.988217      0.320237      3.007494
  H       1.944307     -1.449820      2.704865
  H      -1.030796     -2.827280     -0.810904
  H      -1.600451     -4.799967      0.612078
  H      -2.806337     -4.477779      2.763113
  H      -3.414938     -2.187578      3.523693
  H      -2.776833     -0.191970      2.089394
  H      -0.478928      2.676500     -0.721261
  H      -0.549458      3.026554      1.023696
  H      -2.369288      4.184980     -1.010714
  H      -2.785809      4.100094      0.722360
  H      -4.210615      2.140330      0.115792
  H      -3.344914      1.970489     -1.434581
  H       0.891811     -0.023010     -4.568208
  H       0.957144      1.722569     -4.150605
  H      -0.562065      1.005389     -4.767656
  H       2.572225      0.493912     -3.046619
45
Coordinates from ORCA-job file E -1359.709283865466
  C       5.197666     -0.099163     -0.244896
  O       4.259004      0.096214     -1.280420
  C       2.955622      0.087733     -0.989955
  C       2.451987     -0.117883      0.300752
  C       1.061227     -0.120280      0.489360
  O       0.505065     -0.284188      1.686255
  C       1.325720     -0.486554      2.816040
  C       0.189031      0.034578     -0.618471
  S      -1.574056     -0.003329     -0.468957
  C      -1.885044     -1.439538      0.592085
  C      -1.521384     -2.707427      0.150600
  C      -1.841087     -3.806802      0.947522
  C      -2.535570     -3.628310      2.149673
  C      -2.907134     -2.349398      2.563918
  C      -2.581360     -1.244809      1.778588
  C      -2.095178      1.471776      0.347886
  C      -1.146216      2.679443      0.260103
  C      -2.395584      3.533334     -0.063939
  C      -3.169316      2.245585     -0.441779
  C       0.725227      0.283124     -1.895597
  O      -0.166468      0.497026     -2.866567
  C       0.302310      0.772258     -4.170045
  C       2.105629      0.297338     -2.085975
  H       6.184837     -0.036846     -0.712429
  H       5.109638      0.682886      0.522857
  H       5.076347     -1.087413      0.223797
  H       3.115796     -0.267021      1.146867
  H       0.642149     -0.602726      3.662295
  H       1.982489      0.377765      2.991391
  H       1.935154     -1.395180      2.713360
  H      -0.992518     -2.837502     -0.797274
  H      -1.547604     -4.811062      0.634350
  H      -2.790563     -4.494169      2.764865
  H      -3.447995     -2.209569      3.502654
  H      -2.823133     -0.215230      2.062659
  H      -0.429450      2.680278     -0.580572
  H      -0.584844      2.939442      1.174228
  H      -2.262484      4.269012     -0.866049
  H      -2.807683      4.041980      0.817899
  H      -4.206168      2.169111     -0.077578
  H      -3.185657      2.083437     -1.538769
  H       0.865852     -0.081156     -4.572051
  H       0.936292      1.670101     -4.182101
  H      -0.585000      0.946050     -4.784772
  H       2.554553      0.467083     -3.061706
45
Coordinates from ORCA-job file E -1359.710206474422
  C       5.187191     -0.125280     -0.252130
  O       4.250885      0.071197     -1.289656
  C       2.946915      0.076455     -1.000064
  C       2.440669     -0.114616      0.291946
  C       1.049672     -0.104852      0.478393
  O       0.488777     -0.247958      1.676276
  C       1.303668     -0.446086      2.810904
  C       0.179894      0.038714     -0.632318
  S      -1.582680     -0.003409     -0.475263
  C      -1.879754     -1.441629      0.589928
  C      -1.476505     -2.704077      0.168123
  C      -1.787241     -3.803103      0.968995
  C      -2.511564     -3.630166      2.154345
  C      -2.923849     -2.357143      2.547523
  C      -2.608356     -1.252816      1.757428
  C      -2.106678      1.471440      0.329222
  C      -1.147777      2.669712      0.289767
  C      -2.397419      3.537509      0.011302
  C      -3.150670      2.272250     -0.469114
  C       0.718305      0.279194     -1.910110
  O      -0.171234      0.486645     -2.884872
  C       0.302252      0.751714     -4.188878
  C       2.099301      0.282918     -2.098788
  H       6.175254     -0.074419     -0.719124
  H       5.105227      0.662686      0.510210
  H       5.057601     -1.109422      0.223087
  H       3.102371     -0.259505      1.140460
  H       0.615991     -0.545779      3.656013
  H       1.969110      0.413004      2.979202
  H       1.903651     -1.362311      2.720867
  H      -0.925121     -2.830827     -0.767245
  H      -1.460317     -4.802593      0.674507
  H      -2.757855     -4.495932      2.773150
  H      -3.488097     -2.221114      3.472897
  H      -2.878785     -0.226227      2.026685
  H      -0.443915      2.698604     -0.562243
  H      -0.569652      2.889445      1.203843
  H      -2.260496      4.339197     -0.724341
  H      -2.827873      3.965229      0.926292
  H      -4.204855      2.179331     -0.163715
  H      -3.107865      2.166678     -1.572333
  H       0.858738     -0.108779     -4.585723
  H       0.944592      1.643636     -4.203392
  H      -0.581901      0.930820     -4.806574
  H       2.550499      0.441663     -3.075383
45
Coordinates from ORCA-job file E -1359.710996354054
  C       5.174533     -0.141540     -0.251847
  O       4.242151      0.051463     -1.293779
  C       2.936754      0.065911     -1.007579
  C       2.426619     -0.108314      0.285174
  C       1.035404     -0.088173      0.467707
  O       0.469028     -0.206870      1.666402
  C       1.277872     -0.397785      2.806329
  C       0.169140      0.042243     -0.645295
  S      -1.593185     -0.003781     -0.482065
  C      -1.880230     -1.445258      0.584728
  C      -1.459640     -2.703749      0.167312
  C      -1.755721     -3.804264      0.971764
  C      -2.482010     -3.636801      2.156507
  C      -2.914079     -2.368604      2.543889
  C      -2.614967     -1.262920      1.749034
  C      -2.122390      1.470067      0.312963
  C      -1.150105      2.654871      0.324947
  C      -2.393823      3.537748      0.080909
  C      -3.124388      2.303661     -0.501543
  C       0.710489      0.270003     -1.924251
  O      -0.176178      0.468335     -2.904161
  C       0.301929      0.724833     -4.208315
  C       2.092025      0.265238     -2.110170
  H       6.164358     -0.102832     -0.716296
  H       5.096011      0.654747      0.502232
  H       5.036917     -1.120024      0.232770
  H       3.085641     -0.243961      1.137394
  H       0.586458     -0.480737      3.650399
  H       1.951146      0.456856      2.966581
  H       1.869410     -1.320907      2.730014
  H      -0.908425     -2.826671     -0.768424
  H      -1.413138     -4.799906      0.682497
  H      -2.714488     -4.503160      2.779665
  H      -3.479758     -2.236466      3.468806
  H      -2.899036     -0.239646      2.016153
  H      -0.454772      2.706983     -0.534306
  H      -0.558624      2.835817      1.238891
  H      -2.246441      4.398531     -0.583429
  H      -2.848205      3.883563      1.018792
  H      -4.195769      2.206736     -0.265754
  H      -3.011763      2.252502     -1.604052
  H       0.852755     -0.141477     -4.600677
  H       0.951419      1.611678     -4.223517
  H      -0.579025      0.908664     -4.829258
  H       2.546204      0.413395     -3.087041
45
Coordinates from ORCA-job file E -1359.711574406021
  C       5.160164     -0.148505     -0.254306
  O       4.229776      0.040816     -1.298624
  C       2.924332      0.063427     -1.014358
  C       2.411130     -0.094437      0.279413
  C       1.019474     -0.067359      0.457517
  O       0.449207     -0.167636      1.656239
  C       1.254300     -0.352200      2.799403
  C       0.155886      0.048461     -0.658855
  S      -1.605968     -0.006264     -0.489786
  C      -1.883819     -1.449927      0.577271
  C      -1.449327     -2.704387      0.162402
  C      -1.729929     -3.805607      0.971571
  C      -2.454293     -3.642131      2.158071
  C      -2.902013     -2.378363      2.541914
  C      -2.619033     -1.272418      1.741830
  C      -2.145013      1.466266      0.298561
  C      -1.155731      2.632046      0.381253
  C      -2.384582      3.534761      0.148815
  C      -3.084478      2.341565     -0.544209
  C       0.699852      0.262195     -1.938572
  O      -0.184256      0.444106     -2.923412
  C       0.297704      0.687321     -4.228619
  C       2.081990      0.251678     -2.121029
  H       6.150474     -0.122730     -0.718467
  H       5.087433      0.656528      0.490847
  H       5.015684     -1.120798      0.240610
  H       3.067525     -0.220179      1.135164
  H       0.560687     -0.425638      3.642606
  H       1.931269      0.500416      2.954978
  H       1.841884     -1.278560      2.732526
  H      -0.902489     -2.824364     -0.776166
  H      -1.374687     -4.798119      0.686840
  H      -2.672728     -4.508310      2.786604
  H      -3.465348     -2.248769      3.468584
  H      -2.913710     -0.251839      2.008114
  H      -0.452228      2.704539     -0.470817
  H      -0.567775      2.769147      1.304853
  H      -2.212258      4.447670     -0.435706
  H      -2.879954      3.798735      1.092503
  H      -4.171724      2.252261     -0.396793
  H      -2.882537      2.343172     -1.635404
  H       0.843652     -0.185705     -4.612772
  H       0.952999      1.569737     -4.248753
  H      -0.580342      0.871634     -4.853336
  H       2.538900      0.387765     -3.098402
45
Coordinates from ORCA-job file E -1359.711944679172
  C       5.144446     -0.147677     -0.254161
  O       4.217519      0.039865     -1.302142
  C       2.910229      0.067589     -1.020945
  C       2.393757     -0.081698      0.272478
  C       1.001618     -0.053980      0.446027
  O       0.424384     -0.151411      1.643463
  C       1.222548     -0.329582      2.792134
  C       0.141513      0.055781     -0.670304
  S      -1.619552     -0.009640     -0.493565
  C      -1.890375     -1.450754      0.575679
  C      -1.450997     -2.702474      0.156431
  C      -1.710086     -3.804952      0.971310
  C      -2.418430     -3.645090      2.167116
  C      -2.874209     -2.384813      2.554313
  C      -2.612930     -1.277502      1.748649
  C      -2.174778      1.461915      0.292252
  C      -1.166705      2.605923      0.437680
  C      -2.370246      3.533240      0.190245
  C      -3.037020      2.377620     -0.591572
  C       0.687265      0.262139     -1.950969
  O      -0.194253      0.427035     -2.942552
  C       0.292079      0.658931     -4.248514
  C       2.069811      0.247969     -2.130478
  H       6.135807     -0.140983     -0.716908
  H       5.080686      0.668389      0.479884
  H       4.988195     -1.111715      0.253178
  H       3.047836     -0.201316      1.130829
  H       0.523910     -0.413575      3.630422
  H       1.889240      0.529766      2.955813
  H       1.820737     -1.249461      2.726811
  H      -0.920604     -2.819547     -0.791773
  H      -1.346685     -4.794335      0.686391
  H      -2.616965     -4.510707      2.802848
  H      -3.423668     -2.257609      3.489425
  H      -2.910990     -0.259430      2.020191
  H      -0.447339      2.679795     -0.402089
  H      -0.588748      2.708261      1.371424
  H      -2.164830      4.483568     -0.320179
  H      -2.916227      3.729465      1.122306
  H      -4.134342      2.314132     -0.539996
  H      -2.734714      2.408929     -1.658660
  H       0.830345     -0.221656     -4.626899
  H       0.956134      1.534826     -4.271193
  H      -0.582661      0.848165     -4.876606
  H       2.529394      0.376603     -3.107695
45
Coordinates from ORCA-job file E -1359.712154667900
  C       5.138035     -0.136407     -0.243825
  O       4.216092      0.047984     -1.297471
  C       2.904981      0.069906     -1.020658
  C       2.386949     -0.083544      0.271101
  C       0.994943     -0.063627      0.443138
  O       0.411362     -0.170505      1.639351
  C       1.202720     -0.346956      2.793454
  C       0.137203      0.049955     -0.669041
  S      -1.623759     -0.010787     -0.490073
  C      -1.891878     -1.444699      0.584020
  C      -1.466560     -2.697962      0.151340
  C      -1.715528     -3.804078      0.964438
  C      -2.400789     -3.647581      2.172737
  C      -2.842819     -2.386215      2.574455
  C      -2.590380     -1.273724      1.771973
  C      -2.182983      1.459750      0.305064
  C      -1.164142      2.600547      0.432131
  C      -2.353168      3.538795      0.163597
  C      -3.031893      2.376558     -0.596243
  C       0.682582      0.258148     -1.951555
  O      -0.197904      0.425170     -2.946965
  C       0.290065      0.670436     -4.250579
  C       2.064956      0.249056     -2.130489
  H       6.131881     -0.139835     -0.701987
  H       5.075503      0.686209      0.483715
  H       4.973503     -1.095509      0.270279
  H       3.040984     -0.200764      1.129935
  H       0.498957     -0.446035      3.626129
  H       1.857147      0.519975      2.967935
  H       1.813035     -1.259120      2.724999
  H      -0.956474     -2.812293     -0.808223
  H      -1.362618     -4.793108      0.666248
  H      -2.592094     -4.515359      2.807278
  H      -3.375089     -2.262329      3.519605
  H      -2.880066     -0.257048      2.054720
  H      -0.447286      2.648950     -0.412323
  H      -0.580180      2.713560      1.360726
  H      -2.138404      4.483026     -0.355488
  H      -2.901220      3.746273      1.092343
  H      -4.130687      2.331892     -0.549779
  H      -2.719260      2.382573     -1.660331
  H       0.830009     -0.205999     -4.637516
  H       0.953494      1.547306     -4.263462
  H      -0.584549      0.865802     -4.877788
  H       2.525427      0.381613     -3.106813
45
Coordinates from ORCA-job file E -1359.712506704371
  C       5.123498     -0.089491     -0.235920
  O       4.203105      0.071428     -1.295121
  C       2.890303      0.077076     -1.020627
  C       2.373869     -0.068981      0.272141
  C       0.982259     -0.068088      0.442758
  O       0.397360     -0.171726      1.639444
  C       1.188397     -0.326136      2.797197
  C       0.123189      0.031530     -0.667243
  S      -1.638310     -0.016858     -0.484426
  C      -1.904837     -1.446378      0.588049
  C      -1.517855     -2.701413      0.122649
  C      -1.754805     -3.816768      0.926518
  C      -2.390731     -3.668010      2.161785
  C      -2.793169     -2.404810      2.598594
  C      -2.551260     -1.282293      1.806571
  C      -2.209592      1.452338      0.320439
  C      -1.163061      2.569237      0.485080
  C      -2.300023      3.543639      0.144424
  C      -2.977645      2.395136     -0.634858
  C       0.666106      0.229562     -1.953515
  O      -0.214376      0.384997     -2.951528
  C       0.272054      0.651267     -4.251877
  C       2.048201      0.235653     -2.132146
  H       6.117967     -0.112271     -0.692621
  H       5.064810      0.752783      0.469572
  H       4.952420     -1.033439      0.303166
  H       3.029266     -0.164068      1.132934
  H       0.483428     -0.437742      3.627466
  H       1.822391      0.556408      2.969956
  H       1.818986     -1.225049      2.734223
  H      -1.049237     -2.808544     -0.858570
  H      -1.433545     -4.806427      0.596867
  H      -2.575293     -4.541980      2.789491
  H      -3.288402     -2.287514      3.564365
  H      -2.819712     -0.268230      2.114709
  H      -0.413513      2.578548     -0.332326
  H      -0.610188      2.676746      1.433215
  H      -2.034730      4.483529     -0.358397
  H      -2.891927      3.758927      1.045062
  H      -4.078267      2.394217     -0.652077
  H      -2.598016      2.371784     -1.676263
  H       0.826344     -0.212535     -4.647532
  H       0.921887      1.538456     -4.254415
  H      -0.605133      0.840413     -4.877836
  H       2.507887      0.365079     -3.109274
45
Coordinates from ORCA-job file E -1359.712608067516
  C       5.115226     -0.058768     -0.244999
  O       4.189492      0.089615     -1.300908
  C       2.879411      0.091636     -1.022019
  C       2.366659     -0.049325      0.273166
  C       0.975168     -0.060352      0.444822
  O       0.395242     -0.172061      1.641936
  C       1.192924     -0.320308      2.795920
  C       0.112210      0.029189     -0.666776
  S      -1.649727     -0.019697     -0.481406
  C      -1.915131     -1.448034      0.585308
  C      -1.526385     -2.700411      0.115335
  C      -1.759316     -3.818803      0.915875
  C      -2.393232     -3.675340      2.153284
  C      -2.795832     -2.414411      2.595626
  C      -2.556826     -1.289189      1.807673
  C      -2.234132      1.449157      0.327881
  C      -1.171350      2.545917      0.544755
  C      -2.264064      3.547007      0.147572
  C      -2.928991      2.414915     -0.666450
  C       0.652649      0.221767     -1.953887
  O      -0.229152      0.359798     -2.951394
  C       0.254776      0.619883     -4.253654
  C       2.034692      0.236297     -2.133341
  H       6.105907     -0.101366     -0.708170
  H       5.070166      0.798302      0.443090
  H       4.939030     -0.989519      0.314594
  H       3.023419     -0.134547      1.133842
  H       0.492290     -0.443000      3.627994
  H       1.815986      0.569791      2.968678
  H       1.834258     -1.210844      2.728447
  H      -1.057305     -2.803059     -0.866315
  H      -1.436689     -4.806777      0.582103
  H      -2.575993     -4.551495      2.778671
  H      -3.289563     -2.300821      3.562843
  H      -2.827703     -0.277056      2.120418
  H      -0.385880      2.534053     -0.237292
  H      -0.660034      2.641476      1.516665
  H      -1.956592      4.485575     -0.332117
  H      -2.898169      3.765048      1.018818
  H      -4.026362      2.442596     -0.742477
  H      -2.492200      2.377504     -1.684402
  H       0.811505     -0.244220     -4.644414
  H       0.901124      1.509343     -4.263504
  H      -0.623851      0.801547     -4.879407
  H       2.492442      0.358988     -3.112286
45
Coordinates from ORCA-job file E -1359.712827889432
  C       5.126726     -0.130550     -0.236236
  O       4.209095      0.036601     -1.297106
  C       2.895073      0.056665     -1.022975
  C       2.378134     -0.082202      0.270389
  C       0.987057     -0.068498      0.443024
  O       0.400191     -0.159053      1.641076
  C       1.189000     -0.312839      2.801220
  C       0.128598      0.037727     -0.665565
  S      -1.633795     -0.004552     -0.487985
  C      -1.896214     -1.434066      0.585790
  C      -1.506881     -2.687996      0.118019
  C      -1.737207     -3.805966      0.919969
  C      -2.369066     -3.662632      2.157445
  C      -2.775624     -2.401196      2.596545
  C      -2.542501     -1.275644      1.805529
  C      -2.214796      1.457610      0.314795
  C      -1.187398      2.589807      0.492397
  C      -2.341992      3.546571      0.155086
  C      -2.993403      2.393482     -0.639569
  C       0.672259      0.231993     -1.952799
  O      -0.207444      0.395621     -2.952098
  C       0.280524      0.656045     -4.253302
  C       2.053974      0.223894     -2.133421
  H       6.121348     -0.168531     -0.691935
  H       5.078341      0.715649      0.465778
  H       4.941671     -1.069529      0.307026
  H       3.033977     -0.181765      1.130308
  H       0.483257     -0.409859      3.632767
  H       1.831967      0.564806      2.965604
  H       1.810445     -1.218911      2.744857
  H      -1.040766     -2.792079     -0.864899
  H      -1.412874     -4.793005      0.585685
  H      -2.546957     -4.538533      2.784128
  H      -3.267205     -2.288056      3.564672
  H      -2.813645     -0.263990      2.117557
  H      -0.435152      2.620310     -0.322078
  H      -0.641735      2.701191      1.444420
  H      -2.095652      4.496252     -0.339883
  H      -2.940841      3.743908      1.055318
  H      -4.094224      2.369812     -0.664197
  H      -2.609438      2.385844     -1.679193
  H       0.829010     -0.212110     -4.648171
  H       0.936597      1.538884     -4.257895
  H      -0.596208      0.850472     -4.878815
  H       2.513874      0.348416     -3.111182
45
Coordinates from ORCA-job file E -1359.713068758922
  C       5.130609     -0.218001     -0.234229
  O       4.218861     -0.036631     -1.297998
  C       2.904520      0.014001     -1.025706
  C       2.384153     -0.110617      0.267700
  C       0.994092     -0.064806      0.441310
  O       0.405866     -0.123118      1.641122
  C       1.193888     -0.274220      2.802424
  C       0.138508      0.052176     -0.667764
  S      -1.625432      0.009723     -0.500188
  C      -1.879761     -1.421187      0.579397
  C      -1.485526     -2.674487      0.113908
  C      -1.705477     -3.792135      0.919129
  C      -2.332089     -3.650052      2.159401
  C      -2.748280     -2.390177      2.594044
  C      -2.529569     -1.265624      1.797397
  C      -2.216548      1.461738      0.289733
  C      -1.227519      2.619363      0.485527
  C      -2.422839      3.539535      0.179433
  C      -3.034398      2.382734     -0.640490
  C       0.686686      0.240833     -1.954097
  O      -0.188727      0.429503     -2.953105
  C       0.304629      0.687224     -4.252713
  C       2.067798      0.202933     -2.135750
  H       6.125729     -0.276074     -0.686847
  H       5.096145      0.630817      0.465689
  H       4.924882     -1.151466      0.311311
  H       3.038475     -0.221940      1.127415
  H       0.489919     -0.335769      3.638918
  H       1.860295      0.589724      2.945419
  H       1.791852     -1.197019      2.761409
  H      -1.025436     -2.779161     -0.871801
  H      -1.375353     -4.777076      0.584404
  H      -2.497935     -4.525208      2.790196
  H      -3.235287     -2.277779      3.564535
  H      -2.806669     -0.255413      2.108588
  H      -0.481879      2.697494     -0.332826
  H      -0.683455      2.730507      1.438672
  H      -2.217972      4.506409     -0.302004
  H      -3.018987      3.701179      1.088121
  H      -4.133652      2.311458     -0.661615
  H      -2.660305      2.417796     -1.683334
  H       0.844455     -0.185774     -4.649165
  H       0.970749      1.562753     -4.253350
  H      -0.568946      0.893570     -4.879039
  H       2.530031      0.322265     -3.113079
45
Coordinates from ORCA-job file E -1359.713163018652
  C       5.128839     -0.290490     -0.240799
  O       4.218039     -0.100852     -1.303657
  C       2.907037     -0.015656     -1.029208
  C       2.385432     -0.125235      0.265452
  C       0.996360     -0.054047      0.439798
  O       0.409395     -0.094693      1.640328
  C       1.199077     -0.247646      2.800124
  C       0.141907      0.071857     -0.671437
  S      -1.623816      0.015431     -0.510995
  C      -1.870647     -1.413629      0.572981
  C      -1.469276     -2.665920      0.112392
  C      -1.672752     -3.780398      0.926266
  C      -2.290875     -3.635761      2.171044
  C      -2.719110     -2.377680      2.598463
  C      -2.519445     -1.257605      1.791443
  C      -2.240185      1.459934      0.260823
  C      -1.280273      2.627495      0.516211
  C      -2.487683      3.529118      0.198858
  C      -3.038905      2.385347     -0.680280
  C       0.693485      0.256817     -1.955596
  O      -0.179391      0.463141     -2.951972
  C       0.316092      0.714744     -4.251596
  C       2.073725      0.191761     -2.138496
  H       6.118329     -0.395317     -0.697092
  H       5.129152      0.575884      0.437979
  H       4.893245     -1.202104      0.328860
  H       3.038363     -0.247115      1.124614
  H       0.498675     -0.286187      3.640824
  H       1.882366      0.605100      2.929571
  H       1.779792     -1.181462      2.766857
  H      -1.017730     -2.773636     -0.876985
  H      -1.333783     -4.763845      0.595669
  H      -2.439015     -4.507283      2.811371
  H      -3.198560     -2.262573      3.572523
  H      -2.802762     -0.248009      2.099678
  H      -0.511804      2.740496     -0.276885
  H      -0.768625      2.724319      1.488324
  H      -2.293993      4.516971     -0.242873
  H      -3.117728      3.646386      1.091218
  H      -4.133453      2.287754     -0.755616
  H      -2.619644      2.460715     -1.704147
  H       0.842188     -0.165616     -4.649653
  H       0.995343      1.579997     -4.251821
  H      -0.554798      0.934881     -4.876608
  H       2.537514      0.304608     -3.115855
45
Coordinates from ORCA-job file E -1359.713261205624
  C       5.128369     -0.263885     -0.235587
  O       4.219443     -0.067682     -1.299111
  C       2.905687      0.000129     -1.027282
  C       2.383545     -0.121833      0.265905
  C       0.994040     -0.061872      0.439833
  O       0.404372     -0.121238      1.639287
  C       1.190989     -0.286184      2.799765
  C       0.140388      0.065379     -0.669830
  S      -1.624660      0.015728     -0.507325
  C      -1.870568     -1.411293      0.578779
  C      -1.462733     -2.663412      0.122191
  C      -1.671628     -3.778223      0.934311
  C      -2.301499     -3.634960      2.172906
  C      -2.731825     -2.376646      2.598418
  C      -2.523201     -1.254958      1.795190
  C      -2.227072      1.462496      0.273718
  C      -1.255224      2.629720      0.488299
  C      -2.459489      3.537585      0.175932
  C      -3.050374      2.378560     -0.655755
  C       0.690815      0.255377     -1.954472
  O      -0.183059      0.458516     -2.952075
  C       0.311706      0.711937     -4.251905
  C       2.071619      0.204229     -2.136435
  H       6.122343     -0.338952     -0.688334
  H       5.108035      0.586711      0.462903
  H       4.907303     -1.192701      0.311731
  H       3.036814     -0.243380      1.124895
  H       0.487981     -0.339000      3.637627
  H       1.869964      0.567908      2.942824
  H       1.775948     -1.217140      2.755814
  H      -0.999260     -2.770055     -0.861795
  H      -1.329497     -4.761190      0.605935
  H      -2.457476     -4.507469      2.809858
  H      -3.222036     -2.263274      3.567241
  H      -2.810444     -0.245562      2.100047
  H      -0.498843      2.722710     -0.318721
  H      -0.727620      2.741327      1.450434
  H      -2.263544      4.508660     -0.301074
  H      -3.064138      3.690456      1.080473
  H      -4.148170      2.289998     -0.685885
  H      -2.670628      2.426740     -1.696207
  H       0.838861     -0.167451     -4.651174
  H       0.989729      1.578328     -4.251801
  H      -0.559979      0.931623     -4.876324
  H       2.535119      0.324240     -3.113124
45
Coordinates from ORCA-job file E -1359.713364463929
  C       5.130552     -0.231904     -0.235231
  O       4.219788     -0.031981     -1.296521
  C       2.905369      0.018702     -1.024257
  C       2.385099     -0.111116      0.268812
  C       0.995202     -0.064670      0.443955
  O       0.407424     -0.136471      1.643229
  C       1.195914     -0.306238      2.801594
  C       0.139597      0.059031     -0.664323
  S      -1.625765      0.014408     -0.500601
  C      -1.875827     -1.414217      0.582560
  C      -1.469322     -2.666337      0.124326
  C      -1.686503     -3.783269      0.931344
  C      -2.322921     -3.642022      2.166867
  C      -2.747449     -2.383094      2.596062
  C      -2.527623     -1.258789      1.799432
  C      -2.220421      1.463049      0.286801
  C      -1.236631      2.625896      0.478567
  C      -2.428343      3.544640      0.152441
  C      -3.049570      2.375821     -0.641991
  C       0.687492      0.250427     -1.950108
  O      -0.189027      0.444727     -2.947202
  C       0.302233      0.700644     -4.247910
  C       2.068525      0.214141     -2.132989
  H       6.125997     -0.283815     -0.687938
  H       5.096208      0.606372      0.477420
  H       4.923557     -1.173144      0.296105
  H       3.040165     -0.226882      1.127284
  H       0.493470     -0.370515      3.639092
  H       1.869954      0.550421      2.952277
  H       1.786229     -1.233381      2.749213
  H      -0.998284     -2.770758     -0.856248
  H      -1.347172     -4.766445      0.600709
  H      -2.488633     -4.516633      2.798464
  H      -3.243874     -2.271741      3.561929
  H      -2.813215     -0.249285      2.105534
  H      -0.477921      2.696532     -0.328120
  H      -0.708591      2.748809      1.439256
  H      -2.219320      4.498116     -0.353076
  H      -3.021241      3.733671      1.058100
  H      -4.148951      2.303046     -0.645256
  H      -2.693220      2.396155     -1.691520
  H       0.833254     -0.176012     -4.648173
  H       0.975602      1.570577     -4.248927
  H      -0.571703      0.916010     -4.870691
  H       2.529995      0.337524     -3.110189
45
Coordinates from ORCA-job file E -1359.713431991715
  C       5.131719     -0.210297     -0.237092
  O       4.219703     -0.001367     -1.295487
  C       2.904805      0.032125     -1.023744
  C       2.385357     -0.110247      0.268351
  C       0.995098     -0.073394      0.443849
  O       0.408191     -0.158454      1.642554
  C       1.197319     -0.333622      2.799559
  C       0.138686      0.051550     -0.664117
  S      -1.626738      0.008643     -0.498304
  C      -1.877556     -1.417619      0.587991
  C      -1.463687     -2.670373      0.138707
  C      -1.687894     -3.784694      0.947410
  C      -2.338733     -3.640189      2.175184
  C      -2.768276     -2.380247      2.596237
  C      -2.539757     -1.258323      1.798698
  C      -2.211022      1.460459      0.290208
  C      -1.219645      2.620593      0.462384
  C      -2.405423      3.545218      0.131401
  C      -3.051111      2.369408     -0.632414
  C       0.685256      0.250266     -1.949137
  O      -0.192571      0.444287     -2.945114
  C       0.296979      0.709078     -4.244711
  C       2.066658      0.226017     -2.131709
  H       6.128939     -0.231483     -0.688329
  H       5.079885      0.609017      0.496195
  H       4.941834     -1.168427      0.270049
  H       3.041144     -0.226411      1.126230
  H       0.495012     -0.407443      3.636390
  H       1.867622      0.524634      2.957522
  H       1.791718     -1.257703      2.740155
  H      -0.979606     -2.777461     -0.835232
  H      -1.343609     -4.768541      0.623956
  H      -2.512702     -4.513230      2.806755
  H      -3.277668     -2.266762      3.555097
  H      -2.829869     -0.247647      2.096986
  H      -0.460404      2.676750     -0.344479
  H      -0.690668      2.751698      1.421591
  H      -2.190014      4.484016     -0.397915
  H      -2.984670      3.763284      1.039365
  H      -4.150902      2.305772     -0.608777
  H      -2.720381      2.370931     -1.690451
  H       0.830779     -0.163600     -4.649886
  H       0.967082      1.581478     -4.241710
  H      -0.578017      0.924814     -4.865859
  H       2.527236      0.357495     -3.108257
45
Coordinates from ORCA-job file E -1359.713481336275
  C       5.136027     -0.174128     -0.240251
  O       4.220915      0.044541     -1.293971
  C       2.905553      0.051299     -1.022708
  C       2.387954     -0.107504      0.268167
  C       0.997358     -0.085340      0.444421
  O       0.412470     -0.181226      1.643049
  C       1.203507     -0.354159      2.798960
  C       0.139118      0.038063     -0.662406
  S      -1.626441      0.000457     -0.493542
  C      -1.883358     -1.424572      0.593892
  C      -1.471918     -2.679617      0.148991
  C      -1.707870     -3.792016      0.957020
  C      -2.367800     -3.643125      2.179521
  C      -2.792954     -2.380562      2.596916
  C      -2.552065     -1.260480      1.800354
  C      -2.198701      1.456889      0.295119
  C      -1.197583      2.612197      0.449366
  C      -2.375155      3.544481      0.111966
  C      -3.044971      2.364274     -0.623548
  C       0.683224      0.245783     -1.946986
  O      -0.196855      0.433953     -2.942191
  C       0.289697      0.708000     -4.240996
  C       2.064800      0.238710     -2.129789
  H       6.134697     -0.145143     -0.687717
  H       5.055384      0.614225      0.523606
  H       4.976174     -1.156808      0.229152
  H       3.045155     -0.220871      1.125369
  H       0.501777     -0.438405      3.635280
  H       1.865729      0.509511      2.961423
  H       1.806531     -1.272348      2.735382
  H      -0.980187     -2.789981     -0.820699
  H      -1.366581     -4.777977      0.636916
  H      -2.553152     -4.514975      2.809513
  H      -3.310115     -2.264015      3.551218
  H      -2.839802     -0.247873      2.094432
  H      -0.437487      2.652482     -0.357167
  H      -0.667333      2.750349      1.407044
  H      -2.150756      4.468573     -0.438797
  H      -2.942360      3.790723      1.020340
  H      -4.144754      2.313249     -0.576654
  H      -2.736744      2.347066     -1.688185
  H       0.829696     -0.158920     -4.650267
  H       0.953094      1.585461     -4.235013
  H      -0.587330      0.919909     -4.860592
  H       2.523514      0.379850     -3.105837
45
Coordinates from ORCA-job file E -1359.713487148795
  C       5.135724     -0.183123     -0.240016
  O       4.221255      0.029893     -1.295475
  C       2.905973      0.044071     -1.024018
  C       2.387876     -0.111351      0.267078
  C       0.997431     -0.083922      0.443351
  O       0.412118     -0.177157      1.642048
  C       1.202971     -0.351413      2.797969
  C       0.139612      0.041129     -0.663597
  S      -1.625995      0.002388     -0.496063
  C      -1.882250     -1.421890      0.592029
  C      -1.468616     -2.676593      0.148178
  C      -1.701280     -3.788533      0.957783
  C      -2.360079     -3.639663      2.180818
  C      -2.788325     -2.377626      2.596747
  C      -2.551166     -1.258000      1.798451
  C      -2.202300      1.457731      0.290836
  C      -1.205528      2.615068      0.454527
  C      -2.387305      3.543768      0.121251
  C      -3.045202      2.366332     -0.629614
  C       0.684389      0.247134     -1.948140
  O      -0.195161      0.438077     -2.943273
  C       0.292139      0.708746     -4.242478
  C       2.065896      0.234121     -2.131147
  H       6.134336     -0.164582     -0.688271
  H       5.060256      0.613949      0.515273
  H       4.970099     -1.159678      0.240150
  H       3.044707     -0.227477      1.124196
  H       0.501302     -0.432560      3.634658
  H       1.867834      0.510514      2.958994
  H       1.803187     -1.271498      2.735145
  H      -0.978242     -2.787094     -0.822196
  H      -1.357993     -4.774078      0.638511
  H      -2.541620     -4.510992      2.812639
  H      -3.303904     -2.260933      3.551888
  H      -2.840307     -0.245777      2.092404
  H      -0.445709      2.663473     -0.352011
  H      -0.676063      2.749064      1.413168
  H      -2.167072      4.475783     -0.417934
  H      -2.960682      3.775146      1.029632
  H      -4.145083      2.309244     -0.594340
  H      -2.725617      2.359175     -1.691011
  H       0.828434     -0.160808     -4.651036
  H       0.959199      1.583448     -4.237667
  H      -0.584227      0.923569     -4.862019
  H       2.525089      0.372925     -3.107319
45
Coordinates from ORCA-job file E -1359.713510843457
  C       5.137838     -0.172202     -0.241899
  O       4.222309      0.033410     -1.297903
  C       2.907026      0.043069     -1.026389
  C       2.389355     -0.117925      0.264194
  C       0.998946     -0.091066      0.440947
  O       0.414071     -0.186627      1.639704
  C       1.205560     -0.361505      2.795162
  C       0.140694      0.036285     -0.665434
  S      -1.625023     -0.001341     -0.498171
  C      -1.884498     -1.422269      0.593179
  C      -1.470377     -2.678568      0.154429
  C      -1.704970     -3.787606      0.967474
  C      -2.366100     -3.634344      2.188647
  C      -2.795659     -2.370895      2.598921
  C      -2.557075     -1.254169      1.797019
  C      -2.200984      1.455843      0.284415
  C      -1.205279      2.612579      0.456167
  C      -2.388871      3.540361      0.126621
  C      -3.038047      2.367100     -0.638570
  C       0.685023      0.246192     -1.949458
  O      -0.195023      0.439100     -2.943785
  C       0.291632      0.711378     -4.242842
  C       2.066463      0.234079     -2.132942
  H       6.136849     -0.137601     -0.688344
  H       5.050811      0.620474      0.516732
  H       4.983998     -1.152961      0.233836
  H       3.046430     -0.237745      1.120624
  H       0.504148     -0.443583      3.631990
  H       1.869896      0.500802      2.956392
  H       1.806239     -1.281205      2.731473
  H      -0.979049     -2.792624     -0.815046
  H      -1.361366     -4.774366      0.652306
  H      -2.548180     -4.503239      2.823669
  H      -3.312348     -2.250699      3.553031
  H      -2.845994     -0.240918      2.087548
  H      -0.445763      2.666065     -0.350466
  H      -0.675946      2.741824      1.415497
  H      -2.170303      4.479270     -0.401334
  H      -2.967712      3.758814      1.034689
  H      -4.138054      2.307421     -0.614662
  H      -2.707277      2.368125     -1.696544
  H       0.826280     -0.158266     -4.653381
  H       0.960024      1.585044     -4.237256
  H      -0.584920      0.928565     -4.861303
  H       2.525326      0.375921     -3.108837
45
Coordinates from ORCA-job file E -1359.713516536339
  C       5.139530     -0.162578     -0.242402
  O       4.223166      0.037965     -1.298685
  C       2.907899      0.045071     -1.026678
  C       2.390869     -0.118748      0.263757
  C       1.000471     -0.094241      0.441112
  O       0.416225     -0.190936      1.640069
  C       1.208350     -0.363890      2.795398
  C       0.141648      0.032807     -0.664539
  S      -1.624214     -0.003522     -0.497673
  C      -1.886650     -1.423806      0.594171
  C      -1.477351     -2.681447      0.154454
  C      -1.714363     -3.790080      0.967348
  C      -2.373157     -3.635078      2.189546
  C      -2.798070     -2.370377      2.600696
  C      -2.557379     -1.254111      1.798758
  C      -2.199423      1.454601      0.283647
  C      -1.202691      2.610347      0.455784
  C      -2.384826      3.539206      0.124510
  C      -3.034646      2.366364     -0.640541
  C       0.685254      0.245022     -1.948619
  O      -0.195377      0.437124     -2.942674
  C       0.290468      0.711119     -4.241638
  C       2.066552      0.235122     -2.132829
  H       6.138589     -0.118564     -0.687904
  H       5.045653      0.627564      0.518056
  H       4.992828     -1.145616      0.230929
  H       3.048440     -0.239363      1.119703
  H       0.507127     -0.447371      3.632254
  H       1.870822      0.499888      2.956412
  H       1.810937     -1.282351      2.731700
  H      -0.988252     -2.796647     -0.816002
  H      -1.374680     -4.777829      0.651076
  H      -2.557029     -4.503555      2.824614
  H      -3.312579     -2.248873      3.555809
  H      -2.843071     -0.240220      2.090116
  H      -0.442682      2.662465     -0.350561
  H      -0.673700      2.739665      1.415321
  H      -2.164896      4.477759     -0.403549
  H      -2.964226      3.758551      1.032037
  H      -4.134741      2.308056     -0.617655
  H      -2.702851      2.366332     -1.698176
  H       0.826696     -0.157215     -4.652911
  H       0.957264      1.586026     -4.235559
  H      -0.586619      0.927133     -4.859752
  H       2.524788      0.378230     -3.108829
45
Coordinates from ORCA-job file E -1359.713532186369
  C       5.141757     -0.142487     -0.243195
  O       4.223792      0.046821     -1.300171
  C       2.908664      0.048554     -1.027314
  C       2.392782     -0.122002      0.262640
  C       1.002352     -0.102442      0.440852
  O       0.419172     -0.203437      1.639972
  C       1.212476     -0.374638      2.794804
  C       0.142588      0.025310     -0.663740
  S      -1.623351     -0.008843     -0.497294
  C      -1.890141     -1.426683      0.596889
  C      -1.487143     -2.686680      0.157886
  C      -1.728752     -3.793642      0.971671
  C      -2.385962     -3.634614      2.194199
  C      -2.804443     -2.367572      2.604677
  C      -2.559219     -1.252979      1.801761
  C      -2.195814      1.451744      0.281282
  C      -1.196115      2.605035      0.452312
  C      -2.374960      3.536815      0.117805
  C      -3.028486      2.364315     -0.644403
  C       0.684938      0.243175     -1.947540
  O      -0.196708      0.435909     -2.940666
  C       0.287803      0.714641     -4.239073
  C       2.066080      0.238533     -2.132574
  H       6.140643     -0.078969     -0.686757
  H       5.033550      0.642489      0.520715
  H       5.010354     -1.129925      0.225508
  H       3.051096     -0.245122      1.117676
  H       0.511677     -0.460998      3.631724
  H       1.872149      0.491207      2.956155
  H       1.817895     -1.291170      2.730252
  H      -0.999779     -2.804681     -0.813126
  H      -1.394332     -4.783221      0.655548
  H      -2.573708     -4.501750      2.829962
  H      -3.317353     -2.243070      3.560265
  H      -2.840427     -0.237682      2.092563
  H      -0.435440      2.653286     -0.353697
  H      -0.667499      2.734900      1.411991
  H      -2.152023      4.473384     -0.412486
  H      -2.953860      3.760387      1.024659
  H      -4.128746      2.309376     -0.620949
  H      -2.697171      2.360654     -1.702157
  H       0.826436     -0.151025     -4.652825
  H       0.952095      1.591454     -4.231036
  H      -0.590137      0.929741     -4.856296
  H       2.523372      0.385902     -3.108370
45
Coordinates from ORCA-job file E -1359.713532376515
  C       5.141835     -0.140512     -0.242688
  O       4.223591      0.043003     -1.300449
  C       2.908607      0.047701     -1.026932
  C       2.392902     -0.122033      0.263169
  C       1.002489     -0.102442      0.441601
  O       0.419517     -0.203319      1.640832
  C       1.213132     -0.373381      2.795639
  C       0.142608      0.024968     -0.662839
  S      -1.623332     -0.009026     -0.496889
  C      -1.890535     -1.427109      0.596949
  C      -1.490741     -2.687397      0.155730
  C      -1.732451     -3.794853      0.968790
  C      -2.386632     -3.635967      2.192967
  C      -2.801869     -2.368614      2.605757
  C      -2.556558     -1.253560      1.803502
  C      -2.196232      1.451616      0.281349
  C      -1.196045      2.604488      0.452213
  C      -2.373715      3.536991      0.115691
  C      -3.028417      2.364119     -0.644796
  C       0.684828      0.243076     -1.946729
  O      -0.196876      0.436135     -2.939740
  C       0.287597      0.714991     -4.238126
  C       2.065896      0.238191     -2.132037
  H       6.140644     -0.078435     -0.686643
  H       5.033182      0.647893      0.517642
  H       5.011035     -1.125830      0.230541
  H       3.051283     -0.245870      1.118046
  H       0.512532     -0.459148      3.632781
  H       1.872722      0.492690      2.956059
  H       1.818629     -1.289910      2.731736
  H      -1.005794     -2.805058     -0.816537
  H      -1.400581     -4.784667      0.650731
  H      -2.574562     -4.503488      2.828147
  H      -3.312271     -2.244279      3.562708
  H      -2.835765     -0.238186      2.095940
  H      -0.434820      2.651531     -0.353375
  H      -0.668016      2.735031      1.412126
  H      -2.149720      4.472434     -0.416099
  H      -2.952521      3.762818      1.022075
  H      -4.128714      2.310055     -0.620811
  H      -2.697660      2.358845     -1.702725
  H       0.826911     -0.150321     -4.651728
  H       0.951307      1.592256     -4.230051
  H      -0.590403      0.929429     -4.855485
  H       2.523083      0.385141     -3.107940
45
Coordinates from ORCA-job file E -1359.713540026831
  C       5.141897     -0.131931     -0.241900
  O       4.222747      0.038089     -1.301111
  C       2.908083      0.046025     -1.026528
  C       2.392761     -0.124271      0.263605
  C       1.002334     -0.105123      0.442348
  O       0.419828     -0.207878      1.641625
  C       1.214201     -0.376985      2.796083
  C       0.142203      0.022895     -0.661913
  S      -1.623699     -0.010730     -0.496548
  C      -1.891847     -1.428224      0.597565
  C      -1.497035     -2.689292      0.154137
  C      -1.739416     -3.796656      0.967107
  C      -2.389348     -3.636719      2.193428
  C      -2.799272     -2.368434      2.608708
  C      -2.553034     -1.253503      1.806601
  C      -2.196338      1.450748      0.280292
  C      -1.194340      2.602168      0.451017
  C      -2.369174      3.536835      0.110607
  C      -3.026772      2.363659     -0.646930
  C       0.684184      0.242800     -1.945626
  O      -0.197724      0.437813     -2.938036
  C       0.286626      0.717257     -4.236335
  C       2.065189      0.238658     -2.131128
  H       6.140430     -0.065638     -0.685899
  H       5.027385      0.660201      0.513674
  H       5.017796     -1.115285      0.237179
  H       3.051206     -0.250315      1.118107
  H       0.514169     -0.461521      3.633815
  H       1.874257      0.488996      2.954973
  H       1.819235     -1.293865      2.732918
  H      -1.015246     -2.807369     -0.819666
  H      -1.411441     -4.787213      0.647333
  H      -2.578192     -4.504255      2.828326
  H      -3.306202     -2.243405      3.567423
  H      -2.828716     -0.237571      2.100513
  H      -0.431630      2.646442     -0.353293
  H      -0.667754      2.733542      1.411600
  H      -2.142230      4.469956     -0.423939
  H      -2.947931      3.767449      1.015853
  H      -4.127164      2.312045     -0.621960
  H      -2.697090      2.355081     -1.705180
  H       0.826354     -0.147656     -4.650203
  H       0.949966      1.594800     -4.228015
  H      -0.591444      0.931453     -4.853660
  H       2.522287      0.386921     -3.106864
45
Coordinates from ORCA-job file E -1359.713540499583
  C       5.141348     -0.136875     -0.241993
  O       4.222609      0.037900     -1.300780
  C       2.907853      0.045765     -1.026609
  C       2.392268     -0.123576      0.263565
  C       1.001846     -0.103515      0.442087
  O       0.419039     -0.205191      1.641325
  C       1.213105     -0.374360      2.795972
  C       0.141932      0.024447     -0.662393
  S      -1.623961     -0.009409     -0.496701
  C      -1.891086     -1.427410      0.596896
  C      -1.493377     -2.687794      0.154163
  C      -1.734734     -3.795429      0.967087
  C      -2.386497     -3.636497      2.192550
  C      -2.799402     -2.368919      2.607060
  C      -2.554191     -1.253691      1.805053
  C      -2.196888      1.451454      0.281089
  C      -1.195538      2.603415      0.452194
  C      -2.371402      3.537353      0.113347
  C      -3.027726      2.364429     -0.645762
  C       0.684180      0.242854     -1.946216
  O      -0.197518      0.437197     -2.938944
  C       0.287096      0.715883     -4.237324
  C       2.065223      0.237665     -2.131513
  H       6.140013     -0.073864     -0.686164
  H       5.029850      0.654808      0.514487
  H       5.013921     -1.120338      0.236000
  H       3.050580     -0.248736      1.118295
  H       0.512957     -0.458434      3.633651
  H       1.873478      0.491394      2.954799
  H       1.817848     -1.291456      2.733072
  H      -1.010056     -2.805261     -0.818949
  H      -1.404419     -4.785440      0.648016
  H      -2.574427     -4.504254      2.827417
  H      -3.307883     -2.244621      3.565047
  H      -2.831800     -0.238147      2.098502
  H      -0.433298      2.648942     -0.352484
  H      -0.668460      2.734279      1.412580
  H      -2.145441      4.471517     -0.419811
  H      -2.950442      3.765819      1.018936
  H      -4.128099      2.311986     -0.621436
  H      -2.697360      2.357312     -1.703806
  H       0.826771     -0.149346     -4.650611
  H       0.950520      1.593358     -4.229384
  H      -0.590857      0.929857     -4.854899
  H       2.522523      0.384929     -3.107311
45
Coordinates from ORCA-job file E -1359.713540454534
  C       5.140510     -0.143154     -0.241992
  O       4.222384      0.037178     -1.300363
  C       2.907512      0.045054     -1.026708
  C       2.391601     -0.122674      0.263570
  C       1.001195     -0.100958      0.441901
  O       0.418060     -0.201237      1.641110
  C       1.211829     -0.369944      2.796005
  C       0.141530      0.026891     -0.662835
  S      -1.624379     -0.007332     -0.496733
  C      -1.890212     -1.426326      0.595794
  C      -1.489128     -2.685745      0.153401
  C      -1.729035     -3.793966      0.965978
  C      -2.382664     -3.636627      2.190649
  C      -2.799065     -2.370049      2.604720
  C      -2.555351     -1.254226      1.803093
  C      -2.197885      1.452579      0.282478
  C      -1.197311      2.605120      0.454440
  C      -2.374221      3.538322      0.117327
  C      -3.028848      2.365873     -0.644030
  C       0.684119      0.242863     -1.946898
  O      -0.197293      0.436199     -2.940070
  C       0.287723      0.712894     -4.238743
  C       2.065206      0.236080     -2.131998
  H       6.139360     -0.083870     -0.686246
  H       5.032340      0.647850      0.515671
  H       5.009249     -1.126825      0.234549
  H       3.049760     -0.246682      1.118577
  H       0.511644     -0.452495      3.633801
  H       1.873001      0.495363      2.953978
  H       1.815816     -1.287605      2.734064
  H      -1.004257     -2.802159     -0.819053
  H      -1.395926     -4.783202      0.647402
  H      -2.569281     -4.504842      2.825278
  H      -3.309189     -2.246937      3.561983
  H      -2.835196     -0.239251      2.096367
  H      -0.435473      2.652208     -0.350525
  H      -0.669754      2.735215      1.414669
  H      -2.149235      4.473835     -0.413891
  H      -2.953867      3.764053      1.023199
  H      -4.129202      2.312550     -0.620879
  H      -2.697325      2.360653     -1.701728
  H       0.827176     -0.153124     -4.650659
  H       0.951435      1.590160     -4.231866
  H      -0.590024      0.926302     -4.856807
  H       2.522772      0.381990     -3.107879
45
Coordinates from ORCA-job file E -1359.713542567320
  C       5.140421     -0.142832     -0.242068
  O       4.222203      0.036517     -1.300527
  C       2.907357      0.044753     -1.026768
  C       2.391469     -0.123240      0.263485
  C       1.001064     -0.101523      0.441846
  O       0.417960     -0.201969      1.641054
  C       1.211873     -0.369709      2.795993
  C       0.141390      0.026730     -0.662850
  S      -1.624517     -0.007401     -0.496710
  C      -1.890330     -1.426371      0.595776
  C      -1.488880     -2.685725      0.153540
  C      -1.728724     -3.793938      0.966139
  C      -2.382687     -3.636671      2.190642
  C      -2.799467     -2.370161      2.604545
  C      -2.555748     -1.254330      1.802933
  C      -2.197939      1.452518      0.282582
  C      -1.197158      2.604873      0.454680
  C      -2.373785      3.538344      0.117308
  C      -3.028567      2.365992     -0.644080
  C       0.683966      0.242853     -1.946891
  O      -0.197457      0.436472     -2.939996
  C       0.287559      0.713155     -4.238674
  C       2.065047      0.235961     -2.132021
  H       6.139244     -0.083104     -0.686326
  H       5.031755      0.648350      0.515329
  H       5.009759     -1.126429      0.234804
  H       3.049632     -0.247669      1.118424
  H       0.511841     -0.451226      3.634016
  H       1.873287      0.495597      2.952943
  H       1.815641     -1.287575      2.734885
  H      -1.003695     -2.802082     -0.818768
  H      -1.395295     -4.783122      0.647726
  H      -2.569281     -4.504895      2.825266
  H      -3.309912     -2.247116      3.561646
  H      -2.835835     -0.239379      2.096077
  H      -0.435189      2.651761     -0.350170
  H      -0.669704      2.734915      1.414973
  H      -2.148530      4.473787     -0.413918
  H      -2.953543      3.764242      1.023067
  H      -4.128938      2.312910     -0.621087
  H      -2.696909      2.360615     -1.701731
  H       0.827386     -0.152723     -4.650396
  H       0.950928      1.590679     -4.231885
  H      -0.590219      0.926120     -4.856846
  H       2.522627      0.382043     -3.107868
45
Coordinates from ORCA-job file E -1359.713566054822
  C       5.139352     -0.131071     -0.243226
  O       4.219305      0.026001     -1.303635
  C       2.904899      0.037885     -1.028203
  C       2.389936     -0.133197      0.261958
  C       0.999653     -0.109911      0.441702
  O       0.417750     -0.214795      1.641155
  C       1.215279     -0.359191      2.796801
  C       0.139390      0.023469     -0.662089
  S      -1.626572     -0.007980     -0.494752
  C      -1.894093     -1.428403      0.594473
  C      -1.489931     -2.686786      0.151924
  C      -1.730292     -3.796009      0.962899
  C      -2.387730     -3.640825      2.185872
  C      -2.807545     -2.375382      2.599855
  C      -2.562891     -1.258452      1.800091
  C      -2.198237      1.451819      0.287109
  C      -1.192947      2.600065      0.462447
  C      -2.363171      3.539372      0.119616
  C      -3.021271      2.369526     -0.642797
  C       0.681228      0.240753     -1.946208
  O      -0.200641      0.439257     -2.937915
  C       0.284226      0.710641     -4.237792
  C       2.062108      0.232502     -2.132440
  H       6.137540     -0.059848     -0.687271
  H       5.018214      0.663537      0.508569
  H       5.023160     -1.113223      0.240483
  H       3.048688     -0.264911      1.115292
  H       0.519119     -0.415970      3.640038
  H       1.882288      0.505894      2.929175
  H       1.814005     -1.281556      2.755604
  H      -1.001566     -2.801447     -0.818982
  H      -1.394257     -4.784423      0.644780
  H      -2.574745     -4.509958      2.819116
  H      -3.321718     -2.254171      3.555179
  H      -2.844990     -0.244038      2.093203
  H      -0.427714      2.642615     -0.339525
  H      -0.667896      2.728597      1.424289
  H      -2.131387      4.473197     -0.411616
  H      -2.945511      3.769216      1.022782
  H      -4.121990      2.321999     -0.623366
  H      -2.686713      2.361119     -1.699490
  H       0.829814     -0.154627     -4.643126
  H       0.942381      1.592153     -4.235700
  H      -0.594015      0.914266     -4.858419
  H       2.519586      0.382289     -3.107759
45
Coordinates from ORCA-job file E -1359.713565910247
  C       5.139291     -0.137920     -0.243076
  O       4.219943      0.029614     -1.302488
  C       2.905387      0.040858     -1.027674
  C       2.390108     -0.129790      0.262420
  C       0.999798     -0.107096      0.441782
  O       0.417586     -0.211124      1.641212
  C       1.215001     -0.355342      2.796993
  C       0.139792      0.025070     -0.662294
  S      -1.626139     -0.006904     -0.494978
  C      -1.893017     -1.427936      0.593857
  C      -1.488226     -2.686027      0.151036
  C      -1.728403     -3.795651      0.961531
  C      -2.386168     -3.641188      2.184400
  C      -2.806520     -2.376029      2.598714
  C      -2.562226     -1.258717      1.799361
  C      -2.198232      1.452223      0.287712
  C      -1.194289      2.601662      0.462677
  C      -2.366393      3.539363      0.121934
  C      -3.023293      2.369236     -0.641026
  C       0.681858      0.241966     -1.946403
  O      -0.199856      0.438392     -2.938700
  C       0.285141      0.708023     -4.238897
  C       2.062818      0.234322     -2.132256
  H       6.137781     -0.071070     -0.687120
  H       5.023276      0.654405      0.511977
  H       5.017185     -1.121277      0.236662
  H       3.048842     -0.260037      1.115997
  H       0.518776     -0.414290      3.640045
  H       1.880340      0.510863      2.930524
  H       1.815478     -1.276519      2.754784
  H      -0.999736     -2.800309     -0.819849
  H      -1.392073     -4.783813      0.642984
  H      -2.572988     -4.510607      2.817305
  H      -3.320782     -2.255254      3.554047
  H      -2.845082     -0.244631      2.092746
  H      -0.429870      2.645846     -0.339956
  H      -0.668639      2.730099      1.424199
  H      -2.136356      4.473949     -0.408746
  H      -2.948190      3.767449      1.025859
  H      -4.123916      2.320090     -0.620830
  H      -2.689302      2.362369     -1.697900
  H       0.829876     -0.158167     -4.643414
  H       0.944114      1.588924     -4.237727
  H      -0.592976      0.911830     -4.859645
  H       2.520383      0.383144     -3.107677
45
Coordinates from ORCA-job file E -1359.713563715899
  C       5.139523     -0.149112     -0.243124
  O       4.221556      0.036996     -1.300632
  C       2.906668      0.046002     -1.026927
  C       2.390916     -0.123828      0.263131
  C       1.000528     -0.102519      0.441968
  O       0.417774     -0.205516      1.641321
  C       1.215155     -0.346394      2.797625
  C       0.140881      0.026883     -0.662627
  S      -1.625006     -0.005663     -0.495285
  C      -1.891369     -1.427794      0.592713
  C      -1.486387     -2.685558      0.149117
  C      -1.727065     -3.795923      0.958465
  C      -2.385306     -3.642564      2.181200
  C      -2.805695     -2.377700      2.596361
  C      -2.561290     -1.259707      1.797975
  C      -2.197653      1.452385      0.288921
  C      -1.196041      2.603820      0.463468
  C      -2.371454      3.538823      0.126540
  C      -3.026212      2.368364     -0.637658
  C       0.683214      0.243485     -1.946711
  O      -0.198401      0.436454     -2.939803
  C       0.286482      0.703530     -4.240573
  C       2.064333      0.237617     -2.131998
  H       6.138424     -0.090447     -0.687343
  H       5.033046      0.639353      0.517414
  H       5.006463     -1.134264      0.229906
  H       3.049775     -0.251545      1.116965
  H       0.518998     -0.405993      3.640673
  H       1.878040      0.521856      2.930174
  H       1.818154     -1.265944      2.756465
  H      -0.997736     -2.799270     -0.821757
  H      -1.390911     -4.783797      0.638863
  H      -2.572438     -4.512508      2.813283
  H      -3.319941     -2.257524      3.551784
  H      -2.844862     -0.246063      2.092106
  H      -0.433116      2.650989     -0.340397
  H      -0.669322      2.731881      1.424453
  H      -2.144559      4.474852     -0.402987
  H      -2.952233      3.763644      1.031883
  H      -4.126664      2.316269     -0.616305
  H      -2.693068      2.364420     -1.694802
  H       0.831363     -0.163448     -4.643238
  H       0.945293      1.584534     -4.241210
  H      -0.591710      0.905886     -4.861698
  H       2.521952      0.385035     -3.107601
45
Coordinates from ORCA-job file E -1359.713560853915
  C       5.139822     -0.157559     -0.243475
  O       4.222812      0.045076     -1.298809
  C       2.907653      0.051393     -1.025981
  C       2.391521     -0.118039      0.264014
  C       1.001043     -0.098803      0.442318
  O       0.417922     -0.201609      1.641544
  C       1.215573     -0.336768      2.798445
  C       0.141663      0.027869     -0.662810
  S      -1.624154     -0.005007     -0.495517
  C      -1.890417     -1.428202      0.591428
  C      -1.486140     -2.685730      0.146535
  C      -1.727643     -3.796902      0.954542
  C      -2.385751     -3.644550      2.177474
  C      -2.805189     -2.379846      2.594062
  C      -2.560354     -1.261127      1.796811
  C      -2.196926      1.452175      0.290221
  C      -1.196815      2.604793      0.464871
  C      -2.374535      3.538186      0.131183
  C      -3.027976      2.367873     -0.634324
  C       0.684206      0.244495     -1.946830
  O      -0.197293      0.434225     -2.940635
  C       0.287607      0.698219     -4.242035
  C       2.065461      0.240940     -2.131519
  H       6.138796     -0.106979     -0.688485
  H       5.042777      0.627827      0.521533
  H       4.996625     -1.143802      0.224204
  H       3.050515     -0.243444      1.118074
  H       0.519622     -0.395553      3.641716
  H       1.875814      0.533930      2.928126
  H       1.821270     -1.254654      2.760060
  H      -0.997743     -2.798799     -0.824540
  H      -1.392370     -4.784610      0.633521
  H      -2.573560     -4.515095      2.808520
  H      -3.318972     -2.260250      3.549808
  H      -2.844005     -0.247828      2.091988
  H      -0.435133      2.654361     -0.340037
  H      -0.669229      2.732078      1.425477
  H      -2.149879      4.475426     -0.397170
  H      -2.954360      3.760337      1.037774
  H      -4.128303      2.313679     -0.612162
  H      -2.695368      2.366480     -1.691654
  H       0.833112     -0.169535     -4.642188
  H       0.945889      1.579617     -4.244882
  H      -0.590613      0.898364     -4.863837
  H       2.523122      0.387349     -3.107260
45
Coordinates from ORCA-job file E -1359.713558700619
  C       5.139964     -0.162773     -0.243814
  O       4.223432      0.051647     -1.297273
  C       2.908131      0.055607     -1.025066
  C       2.391762     -0.113730      0.264834
  C       1.001204     -0.096438      0.442681
  O       0.417832     -0.199818      1.641750
  C       1.215748     -0.329372      2.799203
  C       0.142035      0.028203     -0.662885
  S      -1.623706     -0.004863     -0.495724
  C      -1.890042     -1.428768      0.590382
  C      -1.486675     -2.686141      0.144241
  C      -1.728751     -3.797928      0.951234
  C      -2.386371     -3.646284      2.174518
  C      -2.804728     -2.381664      2.592446
  C      -2.559532     -1.262386      1.796089
  C      -2.196234      1.451831      0.291022
  C      -1.196807      2.604888      0.465989
  C      -2.375781      3.537661      0.134567
  C      -3.028705      2.367709     -0.631938
  C       0.684725      0.245077     -1.946813
  O      -0.196689      0.432375     -2.941156
  C       0.288225      0.694094     -4.243022
  C       2.066076      0.243526     -2.130974
  H       6.138772     -0.118855     -0.689872
  H       5.050474      0.620835      0.523949
  H       4.989093     -1.149331      0.220692
  H       3.050834     -0.237477      1.119077
  H       0.519947     -0.386804      3.642679
  H       1.873874      0.543381      2.925751
  H       1.823563     -1.245971      2.763875
  H      -0.998707     -2.798651     -0.827118
  H      -1.394384     -4.785558      0.629030
  H      -2.574697     -4.517309      2.804744
  H      -3.317844     -2.262520      3.548609
  H      -2.842840     -0.249265      2.092199
  H      -0.436024      2.656034     -0.339681
  H      -0.668559      2.731380      1.426327
  H      -2.152461      4.475728     -0.392884
  H      -2.954838      3.758087      1.042056
  H      -4.128955      2.312323     -0.609344
  H      -2.696412      2.368105     -1.689384
  H       0.835006     -0.173901     -4.640917
  H       0.945374      1.576323     -4.247685
  H      -0.590066      0.891669     -4.865540
  H       2.523838      0.389325     -3.106756
45
Coordinates from ORCA-job file E -1359.713557271916
  C       5.140016     -0.166207     -0.244108
  O       4.223716      0.057427     -1.295873
  C       2.908321      0.059278     -1.024170
  C       2.391800     -0.110300      0.265607
  C       1.001165     -0.094900      0.443053
  O       0.417636     -0.199321      1.641966
  C       1.215851     -0.323415      2.799903
  C       0.142170      0.028278     -0.662859
  S      -1.623517     -0.004954     -0.495917
  C      -1.890019     -1.429356      0.589482
  C      -1.487819     -2.686638      0.142028
  C      -1.730261     -3.798936      0.948206
  C      -2.386980     -3.647819      2.172038
  C      -2.804037     -2.383227      2.591364
  C      -2.558586     -1.263478      1.795756
  C      -2.195661      1.451445      0.291442
  C      -1.196529      2.604567      0.466949
  C      -2.376183      3.537209      0.137178
  C      -3.028943      2.367730     -0.630208
  C       0.684973      0.245530     -1.946688
  O      -0.196346      0.430894     -2.941474
  C       0.288698      0.690535     -4.243716
  C       2.066391      0.245868     -2.130383
  H       6.138540     -0.128236     -0.691327
  H       5.057045      0.616306      0.525515
  H       4.982776     -1.152685      0.218377
  H       3.050918     -0.232809      1.119998
  H       0.520203     -0.379297      3.643602
  H       1.872167      0.551151      2.923231
  H       1.825454     -1.238936      2.767650
  H      -1.000560     -2.798631     -0.829750
  H      -1.396915     -4.786550      0.624894
  H      -2.575672     -4.519259      2.801578
  H      -3.316235     -2.264476      3.548067
  H      -2.841179     -0.250427      2.092803
  H      -0.436393      2.656901     -0.339271
  H      -0.667780      2.730284      1.427105
  H      -2.153710      4.475915     -0.389490
  H      -2.954671      3.756410      1.045327
  H      -4.129147      2.311629     -0.607468
  H      -2.696803      2.369513     -1.687723
  H       0.836960     -0.177551     -4.639374
  H       0.944574      1.573703     -4.250041
  H      -0.589616      0.885430     -4.867039
  H       2.524286      0.391404     -3.106141
45
Coordinates from ORCA-job file E -1359.713556356616
  C       5.139974     -0.168924     -0.244289
  O       4.223862      0.062246     -1.294587
  C       2.908394      0.062368     -1.023339
  C       2.391752     -0.107573      0.266307
  C       1.001045     -0.093827      0.443398
  O       0.417401     -0.199500      1.642155
  C       1.215899     -0.318532      2.800520
  C       0.142220      0.028336     -0.662787
  S      -1.623452     -0.005149     -0.496156
  C      -1.890115     -1.429883      0.588687
  C      -1.489182     -2.687118      0.139959
  C      -1.731754     -3.799820      0.945541
  C      -2.387293     -3.649075      2.170046
  C      -2.803004     -2.384477      2.590711
  C      -2.557446     -1.264353      1.795684
  C      -2.195294      1.451038      0.291463
  C      -1.196362      2.604093      0.467794
  C      -2.376401      3.536778      0.139200
  C      -3.028998      2.367807     -0.629124
  C       0.685124      0.246032     -1.946510
  O      -0.196117      0.429848     -2.941660
  C       0.289048      0.687723     -4.244215
  C       2.066599      0.248002     -2.129801
  H       6.138181     -0.136500     -0.692632
  H       5.062776      0.612934      0.526613
  H       4.977148     -1.155074      0.216904
  H       3.050884     -0.229190      1.120819
  H       0.520403     -0.372834      3.644438
  H       1.870700      0.557583      2.920765
  H       1.826975     -1.233167      2.771161
  H      -1.002839     -2.798673     -0.832334
  H      -1.399431     -4.787458      0.621246
  H      -2.576159     -4.520853      2.799068
  H      -3.314128     -2.266049      3.548031
  H      -2.839109     -0.251295      2.093620
  H      -0.436620      2.657472     -0.338748
  H      -0.667304      2.729079      1.427872
  H      -2.154501      4.476062     -0.386677
  H      -2.954603      3.754944      1.047783
  H      -4.129176      2.311220     -0.606543
  H      -2.696808      2.370780     -1.686646
  H       0.839056     -0.180231     -4.637738
  H       0.943402      1.572007     -4.252052
  H      -0.589310      0.879750     -4.868359
  H       2.524662      0.393451     -3.105487
45
Coordinates from ORCA-job file E -1359.713555791118
  C       5.139923     -0.171013     -0.244443
  O       4.223932      0.065637     -1.293613
  C       2.908415      0.064669     -1.022681
  C       2.391690     -0.105655      0.266858
  C       1.000926     -0.093115      0.443697
  O       0.417219     -0.199942      1.642332
  C       1.215958     -0.314989      2.801007
  C       0.142234      0.028520     -0.662669
  S      -1.623463     -0.005333     -0.496393
  C      -1.890236     -1.430259      0.588060
  C      -1.490483     -2.687484      0.138250
  C      -1.733006     -3.800468      0.943459
  C      -2.387310     -3.649947      2.168645
  C      -2.801802     -2.385316      2.590445
  C      -2.556265     -1.264933      1.795801
  C      -2.195263      1.450678      0.291190
  C      -1.196522      2.603635      0.468577
  C      -2.376709      3.536411      0.140598
  C      -3.029005      2.367909     -0.628725
  C       0.685222      0.246605     -1.946299
  O      -0.195950      0.429390     -2.941702
  C       0.289365      0.685747     -4.244505
  C       2.066731      0.249777     -2.129301
  H       6.137825     -0.143281     -0.693766
  H       5.067350      0.610598      0.527165
  H       4.972697     -1.156691      0.216147
  H       3.050819     -0.226761      1.121445
  H       0.520605     -0.367942      3.645124
  H       1.869680      0.562258      2.918757
  H       1.828069     -1.229003      2.773945
  H      -1.005108     -2.798727     -0.834566
  H      -1.401586     -4.788156      0.618389
  H      -2.576194     -4.521965      2.797330
  H      -3.311878     -2.267116      3.548352
  H      -2.836987     -0.251824      2.094486
  H      -0.436857      2.657879     -0.338001
  H      -0.667420      2.727997      1.428710
  H      -2.155088      4.476205     -0.384480
  H      -2.954999      3.753695      1.049342
  H      -4.129176      2.311047     -0.606604
  H      -2.696509      2.371822     -1.686169
  H       0.840975     -0.182048     -4.636139
  H       0.942340      1.571041     -4.253634
  H      -0.589010      0.875170     -4.869414
  H       2.524949      0.395280     -3.104905
45
Coordinates from ORCA-job file E -1359.713556694914
  C       5.139885     -0.171793     -0.244467
  O       4.223936      0.065993     -1.293403
  C       2.908417      0.065101     -1.022504
  C       2.391676     -0.105343      0.267005
  C       1.000899     -0.092939      0.443805
  O       0.417190     -0.200194      1.642403
  C       1.216000     -0.314528      2.801121
  C       0.142247      0.028807     -0.662576
  S      -1.623489     -0.005378     -0.496534
  C      -1.890221     -1.430262      0.587925
  C      -1.490871     -2.687510      0.137825
  C      -1.733222     -3.800517      0.943054
  C      -2.386970     -3.649973      2.168530
  C      -2.801057     -2.385307      2.590641
  C      -2.555647     -1.264906      1.795997
  C      -2.195548      1.450561      0.290750
  C      -1.196971      2.603511      0.468806
  C      -2.377121      3.536287      0.140709
  C      -3.029090      2.367933     -0.629137
  C       0.685264      0.247052     -1.946170
  O      -0.195890      0.429775     -2.941605
  C       0.289478      0.685616     -4.244490
  C       2.066778      0.250382     -2.129124
  H       6.137695     -0.145640     -0.694086
  H       5.068631      0.610003      0.527076
  H       4.971411     -1.157173      0.216300
  H       3.050793     -0.226530      1.121590
  H       0.520690     -0.367242      3.645286
  H       1.869556      0.562900      2.918407
  H       1.828253     -1.228459      2.774444
  H      -1.005944     -2.798721     -0.835221
  H      -1.402084     -4.788245      0.617818
  H      -2.575737     -4.522016      2.797218
  H      -3.310695     -2.267125      3.548784
  H      -2.835988     -0.251745      2.094883
  H      -0.437118      2.658073     -0.337586
  H      -0.668048      2.727693      1.429064
  H      -2.155479      4.476299     -0.383970
  H      -2.955748      3.753195      1.049332
  H      -4.129267      2.311037     -0.607424
  H      -2.696267      2.372116     -1.686484
  H       0.841778     -0.182060     -4.635417
  H       0.941855      1.571347     -4.254085
  H      -0.588911      0.873948     -4.869706
  H       2.525055      0.395976     -3.104684
45
Coordinates from ORCA-job file E -1359.713563127196
  C       5.140163     -0.170052     -0.244441
  O       4.224007      0.064201     -1.293957
  C       2.908573      0.064453     -1.022672
  C       2.391975     -0.106842      0.266780
  C       1.001219     -0.093879      0.443818
  O       0.417688     -0.201754      1.642431
  C       1.216453     -0.320624      2.800697
  C       0.142447      0.029384     -0.662270
  S      -1.623417     -0.005751     -0.496789
  C      -1.890081     -1.429765      0.588757
  C      -1.491408     -2.687407      0.139179
  C      -1.733639     -3.799841      0.945239
  C      -2.386644     -3.648314      2.170979
  C      -2.800018     -2.383243      2.592616
  C      -2.554596     -1.263410      1.797200
  C      -2.196557      1.450457      0.288658
  C      -1.198308      2.603448      0.467822
  C      -2.378019      3.536141      0.138183
  C      -3.029197      2.367627     -0.632163
  C       0.685370      0.248369     -1.945774
  O      -0.195888      0.432828     -2.940794
  C       0.289424      0.688141     -4.243793
  C       2.066839      0.251260     -2.128972
  H       6.138063     -0.142179     -0.693768
  H       5.066756      0.612319      0.526306
  H       4.973920     -1.155378      0.217285
  H       3.051083     -0.229266      1.121199
  H       0.521034     -0.375443      3.644643
  H       1.870959      0.555687      2.920957
  H       1.827674     -1.235149      2.771049
  H      -1.007157     -2.799329     -0.834125
  H      -1.402984     -4.787908      0.620537
  H      -2.575390     -4.519916      2.800290
  H      -3.309153     -2.264387      3.550944
  H      -2.834232     -0.249913      2.095653
  H      -0.437607      2.657898     -0.337807
  H      -0.670104      2.727927      1.428446
  H      -2.155859      4.476267     -0.386061
  H      -2.957899      3.752876      1.046061
  H      -4.129413      2.311118     -0.611306
  H      -2.695593      2.371304     -1.689263
  H       0.842330     -0.179421     -4.634115
  H       0.941252      1.574270     -4.253905
  H      -0.589034      0.875325     -4.869250
  H       2.525068      0.397874     -3.104402
45
Coordinates from ORCA-job file E -1359.716378688117
  C       5.118444     -0.081283     -0.253526
  O       4.200667      0.078365     -1.315376
  C       2.884428      0.066188     -1.045949
  C       2.369763     -0.055587      0.249750
  C       0.978954     -0.054975      0.426359
  O       0.395406     -0.108486      1.629182
  C       1.194173     -0.169576      2.792398
  C       0.119383      0.011713     -0.682981
  S      -1.646947     -0.008989     -0.516130
  C      -1.907754     -1.442830      0.557399
  C      -1.507233     -2.694045      0.091226
  C      -1.752936     -3.818799      0.878927
  C      -2.409416     -3.685783      2.104588
  C      -2.820359     -2.426218      2.545517
  C      -2.570893     -1.294043      1.769013
  C      -2.205931      1.434510      0.292747
  C      -1.185046      2.517417      0.664527
  C      -2.275344      3.532636      0.268970
  C      -2.903978      2.449723     -0.634418
  C       0.659802      0.181013     -1.975393
  O      -0.222749      0.317805     -2.977631
  C       0.261006      0.523639     -4.290032
  C       2.041069      0.196298     -2.158813
  H       6.117068     -0.060381     -0.701835
  H       5.027788      0.737706      0.476483
  H       4.968616     -1.044270      0.258368
  H       3.030083     -0.127845      1.108982
  H       0.498737     -0.188481      3.637977
  H       1.844880      0.714262      2.870756
  H       1.808950     -1.082338      2.804822
  H      -1.015162     -2.790353     -0.879960
  H      -1.429585     -4.803042      0.535930
  H      -2.605964     -4.567629      2.716848
  H      -3.335104     -2.323047      3.502641
  H      -2.858588     -0.285998      2.077538
  H      -0.335987      2.584655     -0.046850
  H      -0.766302      2.556398      1.684624
  H      -1.957165      4.487139     -0.174073
  H      -2.936633      3.730949      1.124016
  H      -4.002935      2.445942     -0.718977
  H      -2.473656      2.502358     -1.654388
  H       0.838035     -0.346691     -4.637425
  H       0.890064      1.424913     -4.340546
  H      -0.619871      0.657264     -4.926041
  H       2.498319      0.309797     -3.139142
45
Coordinates from ORCA-job file E -1359.719355643925
  C       5.101259     -0.020856     -0.265689
  O       4.187283      0.086930     -1.337313
  C       2.869185      0.059732     -1.072601
  C       2.352910     -0.030236      0.224959
  C       0.962022     -0.040808      0.399190
  O       0.374067     -0.063308      1.602324
  C       1.171703     -0.086168      2.768543
  C       0.103976     -0.010252     -0.711157
  S      -1.663550      0.003682     -0.538480
  C      -1.912137     -1.431585      0.536535
  C      -1.506781     -2.679584      0.064409
  C      -1.751614     -3.810979      0.842789
  C      -2.408701     -3.688623      2.068860
  C      -2.819218     -2.432042      2.519123
  C      -2.572670     -1.293273      1.751185
  C      -2.215356      1.432048      0.282975
  C      -1.225544      2.453898      0.849115
  C      -2.231941      3.529081      0.384937
  C      -2.789372      2.521279     -0.643546
  C       0.645442      0.122271     -2.008383
  O      -0.234201      0.219242     -3.019156
  C       0.254139      0.390151     -4.335095
  C       2.026985      0.148280     -2.189976
  H       6.102513      0.004160     -0.708058
  H       4.989973      0.816259      0.440850
  H       4.964552     -0.971126      0.273153
  H       3.012297     -0.067586      1.087111
  H       0.477398     -0.086922      3.615281
  H       1.815092      0.805148      2.819810
  H       1.794242     -0.993389      2.804455
  H      -1.006820     -2.767326     -0.903660
  H      -1.433837     -4.792440      0.487168
  H      -2.608865     -4.575881      2.671653
  H      -3.336698     -2.337817      3.475644
  H      -2.874448     -0.290513      2.061552
  H      -0.292066      2.536022      0.253574
  H      -0.943550      2.425017      1.914693
  H      -1.843072      4.493662      0.027211
  H      -2.979832      3.707625      1.170465
  H      -3.873985      2.548288     -0.840239
  H      -2.258069      2.624090     -1.609982
  H       0.853347     -0.478536     -4.648458
  H       0.864025      1.302910     -4.412635
  H      -0.625438      0.481401     -4.980732
  H       2.485453      0.238074     -3.172307
45
Coordinates from ORCA-job file E -1359.721370431471
  C       5.092709      0.067914     -0.293191
  O       4.173075      0.119380     -1.363899
  C       2.856199      0.077683     -1.094042
  C       2.345370      0.018559      0.207092
  C       0.955289     -0.009128      0.385641
  O       0.371688     -0.012597      1.591512
  C       1.175505      0.008990      2.753639
  C       0.092554     -0.022874     -0.721603
  S      -1.679108      0.014644     -0.538682
  C      -1.935462     -1.430635      0.521217
  C      -1.515948     -2.670945      0.040957
  C      -1.769633     -3.814286      0.798522
  C      -2.446637     -3.711434      2.015417
  C      -2.867881     -2.462291      2.476291
  C      -2.615920     -1.312262      1.727243
  C      -2.220870      1.432252      0.277190
  C      -1.265435      2.372162      1.011813
  C      -2.150935      3.522167      0.482093
  C      -2.642632      2.589449     -0.645808
  C       0.628978      0.072978     -2.023389
  O      -0.255779      0.119482     -3.033493
  C       0.225490      0.244491     -4.356993
  C       2.009387      0.115495     -2.210965
  H       6.091682      0.095397     -0.740319
  H       4.968030      0.926434      0.384482
  H       4.975942     -0.865089      0.279597
  H       3.007353      0.016379      1.068001
  H       0.486211      0.011780      3.604427
  H       1.799195      0.915386      2.780709
  H       1.817899     -0.883342      2.804920
  H      -0.994501     -2.742742     -0.917071
  H      -1.445105     -4.789621      0.431971
  H      -2.654677     -4.607857      2.601801
  H      -3.400788     -2.383588      3.425737
  H      -2.935284     -0.317067      2.044040
  H      -0.260437      2.423369      0.540770
  H      -1.124627      2.283741      2.101674
  H      -1.674691      4.473909      0.206398
  H      -2.972613      3.717512      1.185876
  H      -3.698108      2.676196     -0.952338
  H      -2.010069      2.710168     -1.547149
  H       0.848921     -0.619819     -4.632677
  H       0.809378      1.169528     -4.477045
  H      -0.657455      0.279718     -5.003193
  H       2.463843      0.180417     -3.197073
45
Coordinates from ORCA-job file E -1359.722528081984
  C       5.101012      0.107294     -0.319571
  O       4.177144      0.129731     -1.387409
  C       2.860934      0.063959     -1.114794
  C       2.354232     -0.004343      0.187125
  C       0.964851     -0.047147      0.368491
  O       0.383274     -0.081723      1.576786
  C       1.190910     -0.061718      2.736033
  C       0.097079     -0.049192     -0.734825
  S      -1.682027      0.052409     -0.533861
  C      -1.931441     -1.387358      0.532100
  C      -1.486056     -2.623184      0.062436
  C      -1.739031     -3.770735      0.813100
  C      -2.437065     -3.677907      2.018975
  C      -2.879176     -2.433706      2.472893
  C      -2.632377     -1.279476      1.728202
  C      -2.222731      1.455093      0.251604
  C      -1.366862      2.376231      1.114357
  C      -2.187501      3.542095      0.513853
  C      -2.567326      2.633102     -0.674316
  C       0.631249      0.035718     -2.037455
  O      -0.256855      0.071690     -3.046166
  C       0.220440      0.185250     -4.372007
  C       2.010731      0.087272     -2.229845
  H       6.097432      0.163828     -0.769628
  H       4.953428      0.962945      0.356987
  H       5.012083     -0.826930      0.256476
  H       3.018680     -0.007608      1.046013
  H       0.507304     -0.089338      3.591096
  H       1.793714      0.858942      2.775128
  H       1.854756     -0.939185      2.766169
  H      -0.937804     -2.686970     -0.881118
  H      -1.401446     -4.740831      0.444526
  H      -2.645987     -4.577364      2.599938
  H      -3.428602     -2.362638      3.413361
  H      -2.984353     -0.294082      2.039202
  H      -0.313012      2.430590      0.765713
  H      -1.364704      2.266284      2.210789
  H      -1.684075      4.492566      0.287440
  H      -3.071701      3.737617      1.137493
  H      -3.592221      2.710340     -1.073738
  H      -1.859580      2.782456     -1.513247
  H       0.848750     -0.677304     -4.642369
  H       0.797963      1.112944     -4.503613
  H      -0.665619      0.207473     -5.014524
  H       2.461685      0.152912     -3.217700
45
Coordinates from ORCA-job file E -1359.723029812428
  C       5.094642      0.171760     -0.354999
  O       4.163217      0.170716     -1.415613
  C       2.849943      0.095868     -1.137865
  C       2.346294      0.036336      0.165758
  C       0.957143     -0.027149      0.348904
  O       0.381764     -0.074800      1.559597
  C       1.190159     -0.014863      2.716052
  C       0.087866     -0.045887     -0.754913
  S      -1.700005      0.044070     -0.561040
  C      -1.961033     -1.387872      0.504329
  C      -1.468020     -2.618776      0.072323
  C      -1.718777     -3.758048      0.835964
  C      -2.459808     -3.660280      2.016227
  C      -2.950430     -2.420999      2.431001
  C      -2.707920     -1.275603      1.671814
  C      -2.242205      1.445280      0.214714
  C      -1.430570      2.264814      1.213340
  C      -2.122560      3.508545      0.612032
  C      -2.433553      2.691289     -0.662986
  C       0.620801      0.022574     -2.057789
  O      -0.269887      0.021438     -3.064326
  C       0.205052      0.087840     -4.393820
  C       1.998941      0.088022     -2.252733
  H       6.087106      0.225786     -0.814307
  H       4.946532      1.040884      0.304060
  H       5.018883     -0.750779      0.241269
  H       3.012292      0.046422      1.023614
  H       0.506380     -0.047554      3.570784
  H       1.770189      0.920692      2.743633
  H       1.875034     -0.875137      2.761577
  H      -0.884084     -2.683729     -0.849329
  H      -1.339075     -4.725341      0.502705
  H      -2.661258     -4.552950      2.610385
  H      -3.530225     -2.346035      3.352764
  H      -3.088204     -0.292889      1.959803
  H      -0.346077      2.276163      0.978668
  H      -1.545665      2.084229      2.295263
  H      -1.537370      4.431398      0.497206
  H      -3.049084      3.731567      1.159545
  H      -3.408805      2.856367     -1.149839
  H      -1.638341      2.843155     -1.420186
  H       0.846596     -0.774803     -4.629773
  H       0.767123      1.018344     -4.565658
  H      -0.681259      0.068705     -5.035993
  H       2.448357      0.141231     -3.242064
45
Coordinates from ORCA-job file E -1359.723473117679
  C       5.093069      0.197166     -0.359431
  O       4.164559      0.192179     -1.422615
  C       2.852005      0.101247     -1.146600
  C       2.348519      0.021186      0.156135
  C       0.960000     -0.055109      0.337961
  O       0.385868     -0.132162      1.547891
  C       1.192955     -0.076494      2.704843
  C       0.090421     -0.065551     -0.765297
  S      -1.698954      0.034798     -0.564330
  C      -1.967744     -1.386627      0.511729
  C      -1.423120     -2.612797      0.130848
  C      -1.681673     -3.741947      0.906741
  C      -2.479798     -3.639369      2.048792
  C      -3.021802     -2.405682      2.411789
  C      -2.774009     -1.270563      1.638499
  C      -2.226883      1.443184      0.219011
  C      -1.384958      2.268901      1.189148
  C      -2.105863      3.507645      0.613119
  C      -2.465257      2.687882     -0.648672
  C       0.623058      0.019042     -2.067751
  O      -0.265631      0.018036     -3.076547
  C       0.212209      0.108830     -4.403277
  C       2.001289      0.095765     -2.261470
  H       6.084539      0.289582     -0.814819
  H       4.919747      1.049712      0.315213
  H       5.041777     -0.738387      0.218942
  H       3.014927      0.023343      1.013881
  H       0.509668     -0.131095      3.558832
  H       1.758574      0.867283      2.746246
  H       1.891667     -0.926165      2.739950
  H      -0.795697     -2.682082     -0.761177
  H      -1.263151     -4.705748      0.612050
  H      -2.685801     -4.524243      2.653089
  H      -3.646489     -2.326197      3.303366
  H      -3.192252     -0.293522      1.889221
  H      -0.309271      2.289587      0.921919
  H      -1.465876      2.083293      2.273393
  H      -1.521168      4.427524      0.473812
  H      -3.008785      3.736152      1.196093
  H      -3.462233      2.845974     -1.091509
  H      -1.704869      2.847967     -1.438892
  H       0.852619     -0.750390     -4.654363
  H       0.776193      1.041324     -4.556826
  H      -0.672222      0.105829     -5.048454
  H       2.449946      0.160702     -3.250384
45
Coordinates from ORCA-job file E -1359.723540573982
  C       5.106465      0.212624     -0.357608
  O       4.179845      0.208063     -1.422317
  C       2.867014      0.108380     -1.148812
  C       2.361327      0.031558      0.153404
  C       0.973211     -0.056640      0.332263
  O       0.396444     -0.137805      1.541337
  C       1.195033     -0.023087      2.699513
  C       0.105918     -0.076671     -0.771573
  S      -1.686515      0.038926     -0.566692
  C      -1.966861     -1.389720      0.497161
  C      -1.471292     -2.629564      0.092000
  C      -1.750048     -3.758053      0.861405
  C      -2.516525     -3.642524      2.023379
  C      -3.009100     -2.396265      2.411345
  C      -2.743651     -1.261223      1.643056
  C      -2.208788      1.437130      0.230011
  C      -1.374271      2.261404      1.205435
  C      -2.124162      3.495704      0.657084
  C      -2.486762      2.689004     -0.612551
  C       0.640014      0.002775     -2.073614
  O      -0.246119     -0.017064     -3.085240
  C       0.235067      0.061099     -4.411355
  C       2.018493      0.088196     -2.265232
  H       6.098981      0.303772     -0.811034
  H       4.933052      1.066579      0.315241
  H       5.053484     -0.721877      0.222375
  H       3.026397      0.042129      1.012035
  H       0.509524     -0.068037      3.552317
  H       1.734473      0.936832      2.711989
  H       1.916877     -0.851410      2.765729
  H      -0.870629     -2.710437     -0.817021
  H      -1.370661     -4.731722      0.546615
  H      -2.735801     -4.526570      2.624221
  H      -3.608576     -2.305905      3.319054
  H      -3.123782     -0.275394      1.916298
  H      -0.299955      2.305821      0.933601
  H      -1.446903      2.053252      2.285774
  H      -1.549242      4.422177      0.520513
  H      -3.020692      3.709931      1.255089
  H      -3.494525      2.833073     -1.034879
  H      -1.744495      2.880302     -1.412503
  H       0.883418     -0.796156     -4.648886
  H       0.792325      0.995969     -4.575195
  H      -0.646656      0.043261     -5.059980
  H       2.468750      0.148166     -3.253649
45
Coordinates from ORCA-job file E -1359.723601689706
  C       5.105544      0.226918     -0.363211
  O       4.180806      0.219252     -1.429414
  C       2.868344      0.105639     -1.158387
  C       2.361439      0.020345      0.142970
  C       0.974001     -0.080826      0.318394
  O       0.393853     -0.173264      1.525373
  C       1.175545      0.006228      2.685961
  C       0.108829     -0.099151     -0.785950
  S      -1.684417      0.034096     -0.574830
  C      -1.970939     -1.392512      0.491541
  C      -1.463286     -2.633120      0.103740
  C      -1.745594     -3.756710      0.878747
  C      -2.528023     -3.636660      2.029407
  C      -3.031409     -2.389916      2.401231
  C      -2.761102     -1.259130      1.627629
  C      -2.190025      1.432773      0.225395
  C      -1.367364      2.236880      1.225391
  C      -2.109581      3.482212      0.690500
  C      -2.466597      2.697422     -0.595124
  C       0.643068     -0.014202     -2.086928
  O      -0.242667     -0.032905     -3.099263
  C       0.238432      0.053728     -4.424577
  C       2.021439      0.080958     -2.276232
  H       6.098372      0.326159     -0.814379
  H       4.925732      1.078307      0.311226
  H       5.057867     -0.709228      0.214608
  H       3.025296      0.031924      1.002506
  H       0.483748     -0.037956      3.533845
  H       1.678751      0.985819      2.673454
  H       1.927616     -0.791235      2.786057
  H      -0.851118     -2.717794     -0.797405
  H      -1.356436     -4.730620      0.576925
  H      -2.749884     -4.517083      2.634674
  H      -3.642121     -2.295123      3.300948
  H      -3.148419     -0.273673      1.891160
  H      -0.287907      2.284043      0.972967
  H      -1.457689      2.005437      2.299890
  H      -1.521858      4.402878      0.569502
  H      -3.006822      3.701032      1.285466
  H      -3.474036      2.847870     -1.015960
  H      -1.723615      2.905308     -1.389785
  H       0.886634     -0.802153     -4.667382
  H       0.795973      0.989443     -4.583104
  H      -0.642975      0.041100     -5.073733
  H       2.472694      0.147490     -3.263742
45
Coordinates from ORCA-job file E -1359.723642867085
  C       5.104773      0.236107     -0.365614
  O       4.181125      0.206557     -1.432296
  C       2.868503      0.098086     -1.159724
  C       2.362549      0.013253      0.142008
  C       0.975006     -0.083316      0.318329
  O       0.396800     -0.179110      1.525778
  C       1.179648     -0.003239      2.685720
  C       0.108895     -0.098745     -0.785600
  S      -1.683997      0.034195     -0.576208
  C      -1.973509     -1.391740      0.491925
  C      -1.458954     -2.630716      0.109241
  C      -1.740065     -3.753807      0.885544
  C      -2.529697     -3.634659      2.031437
  C      -3.040780     -2.389161      2.397723
  C      -2.770046     -1.258998      1.623633
  C      -2.185851      1.435257      0.220335
  C      -1.369480      2.235977      1.227324
  C      -2.107206      3.483157      0.689936
  C      -2.460306      2.700728     -0.598525
  C       0.642245     -0.014204     -2.086775
  O      -0.245009     -0.027314     -3.097465
  C       0.234756      0.055297     -4.423510
  C       2.020497      0.077399     -2.276941
  H       6.096941      0.340995     -0.816987
  H       4.915173      1.091804      0.300649
  H       5.066788     -0.694977      0.221117
  H       3.026470      0.021138      1.001690
  H       0.488537     -0.052793      3.533975
  H       1.680759      0.977551      2.676914
  H       1.933773     -0.799057      2.783562
  H      -0.840495     -2.714019     -0.787843
  H      -1.344115     -4.726656      0.589260
  H      -2.751498     -4.514863      2.637030
  H      -3.657684     -2.295272      3.293312
  H      -3.162292     -0.273789      1.882148
  H      -0.288322      2.283734      0.982007
  H      -1.464263      2.002832      2.301345
  H      -1.517351      4.403148      0.573655
  H      -3.007018      3.703091      1.280502
  H      -3.467376      2.852915     -1.019987
  H      -1.716732      2.909007     -1.392462
  H       0.883565     -0.800783     -4.664028
  H       0.791316      0.990985     -4.585677
  H      -0.647302      0.038982     -5.071690
  H       2.471330      0.145021     -3.264667
45
Coordinates from ORCA-job file E -1359.723634060766
  C       5.101905      0.239234     -0.364464
  O       4.180396      0.188199     -1.432368
  C       2.866940      0.090079     -1.159341
  C       2.360130      0.016112      0.142660
  C       0.972327     -0.075736      0.318914
  O       0.394288     -0.166176      1.526837
  C       1.175883      0.022523      2.685414
  C       0.106486     -0.096600     -0.785517
  S      -1.684628      0.039540     -0.576963
  C      -1.975673     -1.391865      0.485597
  C      -1.462498     -2.628849      0.095923
  C      -1.742607     -3.755520      0.867557
  C      -2.530074     -3.641304      2.015637
  C      -3.040319     -2.397196      2.388439
  C      -2.770638     -1.263909      1.618911
  C      -2.178211      1.438902      0.227334
  C      -1.360427      2.234387      1.236276
  C      -2.099182      3.484319      0.704919
  C      -2.459532      2.706846     -0.584726
  C       0.640764     -0.021284     -2.087074
  O      -0.245655     -0.038871     -3.097996
  C       0.235564      0.036020     -4.424071
  C       2.019341      0.064292     -2.276767
  H       6.094379      0.342498     -0.815516
  H       4.906272      1.103982      0.288214
  H       5.067596     -0.683013      0.236321
  H       3.022993      0.027178      1.003192
  H       0.484432     -0.020620      3.533779
  H       1.674020      1.004777      2.666631
  H       1.932834     -0.769315      2.793460
  H      -0.844151     -2.707742     -0.801680
  H      -1.346677     -4.727021      0.566862
  H      -2.751043     -4.524279      2.617423
  H      -3.655991     -2.307077      3.285258
  H      -3.161758     -0.278984      1.881264
  H      -0.279540      2.283717      0.989982
  H      -1.452331      1.997655      2.309852
  H      -1.508683      4.403984      0.588797
  H      -2.995722      3.703791      1.300498
  H      -3.470192      2.859088     -0.997792
  H      -1.722722      2.918956     -1.383957
  H       0.880376     -0.824079     -4.660907
  H       0.796694      0.968411     -4.589338
  H      -0.646272      0.021472     -5.072610
  H       2.471005      0.123477     -3.264767
45
Coordinates from ORCA-job file E -1359.723650482264
  C       5.100127      0.242410     -0.360833
  O       4.180285      0.187818     -1.430199
  C       2.866649      0.087970     -1.158238
  C       2.359134      0.010054      0.143219
  C       0.971195     -0.082408      0.318732
  O       0.392509     -0.174592      1.526278
  C       1.174115      0.007824      2.685867
  C       0.105687     -0.099127     -0.786036
  S      -1.684788      0.036175     -0.577456
  C      -1.973321     -1.393166      0.489477
  C      -1.466291     -2.632099      0.097956
  C      -1.746082     -3.757270      0.871989
  C      -2.526729     -3.639397      2.024324
  C      -3.030724     -2.393262      2.398907
  C      -2.761686     -1.261545      1.626904
  C      -2.178215      1.438257      0.222721
  C      -1.361157      2.237392      1.229153
  C      -2.099899      3.485396      0.692786
  C      -2.460653      2.703109     -0.593769
  C       0.640708     -0.020205     -2.087213
  O      -0.245316     -0.033632     -3.098583
  C       0.235931      0.050051     -4.424176
  C       2.019454      0.065973     -2.275991
  H       6.092276      0.355415     -0.810259
  H       4.896199      1.103645      0.293928
  H       5.072620     -0.681869      0.237186
  H       3.021331      0.019256      1.004211
  H       0.481987     -0.033827      3.533757
  H       1.676922      0.987717      2.669294
  H       1.927338     -0.787721      2.792982
  H      -0.853383     -2.713967     -0.803077
  H      -1.356146     -4.730552      0.569195
  H      -2.747460     -4.521183      2.627943
  H      -3.641149     -2.300366      3.299037
  H      -3.148172     -0.274990      1.889858
  H      -0.280168      2.286410      0.983391
  H      -1.453761      2.005188      2.303675
  H      -1.509577      4.404596      0.572622
  H      -2.996246      3.707073      1.287873
  H      -3.471796      2.852814     -1.006567
  H      -1.724691      2.912836     -1.394406
  H       0.879145     -0.809385     -4.667558
  H       0.798586      0.982668     -4.582671
  H      -0.646128      0.042068     -5.072547
  H       2.471437      0.128451     -3.263586
45
Coordinates from ORCA-job file E -1359.723648497023
  C       5.103267      0.235645     -0.362695
  O       4.182378      0.184352     -1.431373
  C       2.868706      0.087123     -1.158442
  C       2.362004      0.011501      0.143432
  C       0.974024     -0.079814      0.320315
  O       0.396405     -0.169913      1.528611
  C       1.179466      0.014202      2.687118
  C       0.107578     -0.096444     -0.783640
  S      -1.683198      0.039150     -0.574937
  C      -1.973105     -1.391572      0.489217
  C      -1.463247     -2.629144      0.096900
  C      -1.744146     -3.756049      0.868042
  C      -2.528537     -3.641072      2.018046
  C      -3.035067     -2.396242      2.393540
  C      -2.764978     -1.262774      1.624529
  C      -2.178315      1.439739      0.224937
  C      -1.363065      2.241168      1.230747
  C      -2.106753      3.486847      0.696142
  C      -2.465819      2.703991     -0.590509
  C       0.641927     -0.020106     -2.085300
  O      -0.244881     -0.034967     -3.096131
  C       0.235398      0.045452     -4.422300
  C       2.020604      0.065163     -2.275428
  H       6.095895      0.340494     -0.813052
  H       4.905057      1.100153      0.289482
  H       5.070295     -0.686593      0.238163
  H       3.024929      0.020868      1.003816
  H       0.488065     -0.022306      3.535822
  H       1.685596      0.992258      2.666598
  H       1.929891     -0.783791      2.795783
  H      -0.847922     -2.708686     -0.802683
  H      -1.352824     -4.728486      0.564343
  H      -2.750235     -4.524251      2.619291
  H      -3.648283     -2.305901      3.292034
  H      -3.153431     -0.277161      1.887839
  H      -0.282580      2.294433      0.983437
  H      -1.453464      2.008531      2.305298
  H      -1.520453      4.408548      0.575867
  H      -3.003545      3.704390      1.292185
  H      -3.477683      2.850540     -1.002568
  H      -1.731182      2.916727     -1.391590
  H       0.881255     -0.812854     -4.662723
  H       0.795096      0.979208     -4.584458
  H      -0.646936      0.032006     -5.070198
  H       2.471913      0.125638     -3.263407
45
Coordinates from ORCA-job file E -1359.723646665724
  C       5.102982      0.239680     -0.362670
  O       4.182417      0.185452     -1.431522
  C       2.868802      0.087114     -1.158734
  C       2.361861      0.011995      0.143094
  C       0.973889     -0.079424      0.319783
  O       0.396116     -0.169384      1.527995
  C       1.179038      0.015346      2.686467
  C       0.107631     -0.097614     -0.784246
  S      -1.683179      0.038888     -0.575459
  C      -1.973741     -1.391856      0.488343
  C      -1.464865     -2.629881      0.096089
  C      -1.746549     -3.756437      0.867449
  C      -2.530684     -3.640697      2.017561
  C      -3.036279     -2.395489      2.392900
  C      -2.765459     -1.262294      1.623675
  C      -2.177624      1.439260      0.225370
  C      -1.361525      2.239251      1.231734
  C      -2.104491      3.485943      0.698474
  C      -2.464801      2.704484     -0.588753
  C       0.642223     -0.022239     -2.085815
  O      -0.244346     -0.038719     -3.096831
  C       0.236069      0.042901     -4.422855
  C       2.020871      0.063531     -2.275834
  H       6.095300      0.347804     -0.812937
  H       4.901912      1.103740      0.289229
  H       5.072844     -0.682555      0.238323
  H       3.024650      0.021812      1.003603
  H       0.487814     -0.021915      3.535281
  H       1.684303      0.993852      2.666189
  H       1.930244     -0.781968      2.794721
  H      -0.849660     -2.710091     -0.803504
  H      -1.355822     -4.729145      0.563867
  H      -2.752784     -4.523565      2.619114
  H      -3.649210     -2.304550      3.291525
  H      -3.153001     -0.276361      1.887137
  H      -0.280949      2.291679      0.984635
  H      -1.452519      2.005551      2.305993
  H      -1.517125      4.407008      0.578495
  H      -3.000684      3.704047      1.295173
  H      -3.476801      2.851957     -1.000140
  H      -1.730396      2.917644     -1.389900
  H       0.881230     -0.815627     -4.664350
  H       0.796469      0.976445     -4.583876
  H      -0.646248      0.031092     -5.070809
  H       2.472177      0.123336     -3.263882
