45
Coordinates from ORCA-job file
  C   5.10298180240276      0.23968014347146     -0.36267014378335
  O   4.18241734587517      0.18545188389013     -1.43152189656109
  C   2.86880218770285      0.08711417028504     -1.15873375454431
  C   2.36186118472846      0.01199534019389      0.14309420583845
  C   0.97388879628404     -0.07942412774101      0.31978341454182
  O   0.39611641978115     -0.16938415371834      1.52799501482910
  C   1.17903791163158      0.01534606536161      2.68646666504529
  C   0.10763097468644     -0.09761377843098     -0.78424616759631
  S   -1.68317906073259      0.03888774077914     -0.57545944616248
  C   -1.97374122675162     -1.39185619082212      0.48834282127500
  C   -1.46486458101095     -2.62988057556195      0.09608878090916
  C   -1.74654854182988     -3.75643714674001      0.86744933548770
  C   -2.53068383872971     -3.64069672849549      2.01756113833518
  C   -3.03627937018248     -2.39548943321106      2.39290012793795
  C   -2.76545901981508     -1.26229353538965      1.62367476254680
  C   -2.17762436191051      1.43925990037027      0.22536956829709
  C   -1.36152465698697      2.23925145748359      1.23173406403739
  C   -2.10449052422330      3.48594301714784      0.69847430056487
  C   -2.46480117272193      2.70448368306423     -0.58875260466459
  C   0.64222280996576     -0.02223930813617     -2.08581526916614
  O   -0.24434623953006     -0.03871928644729     -3.09683076968966
  C   0.23606863700738      0.04290065723723     -4.42285532106000
  C   2.02087141444043      0.06353139900985     -2.27583418659099
  H   6.09529965112399      0.34780364271267     -0.81293686857657
  H   4.90191208409120      1.10374002785361      0.28922858677828
  H   5.07284373252396     -0.68255484804949      0.23832323422533
  H   3.02465019160377      0.02181168095323      1.00360348003985
  H   0.48781386148613     -0.02191469749643      3.53528136475187
  H   1.68430324927094      0.99385240684279      2.66618901519806
  H   1.93024383285443     -0.78196754191240      2.79472054409836
  H   -0.84966015153237     -2.71009067599869     -0.80350389857701
  H   -1.35582243606379     -4.72914537669853      0.56386664927134
  H   -2.75278442956479     -4.52356491394781      2.61911357022804
  H   -3.64920978093711     -2.30455034580141      3.29152470953896
  H   -3.15300087166772     -0.27636122686033      1.88713726340405
  H   -0.28094867294271      2.29167881981823      0.98463500091859
  H   -1.45251895997187      2.00555116932407      2.30599254628713
  H   -1.51712464011033      4.40700754160217      0.57849485818267
  H   -3.00068427559464      3.70404653075718      1.29517340069397
  H   -3.47680113031193      2.85195659912438     -1.00014000978050
  H   -1.73039611863277      2.91764377806304     -1.38990048438691
  H   0.88123028341927     -0.81562698305902     -4.66435010964052
  H   0.79646894540047      0.97644472233617     -4.58387649415542
  H   -0.64624828631963      0.03109222436953     -5.07080932514924
  H   2.47217703179455      0.12333627246681     -3.26388167317723
