23
Coordinates from ORCA-job file
  C   2.07039941359512      0.69796855367521      0.98274956046888
  C   0.68334340868407      1.31156751107489      0.71740056401356
  C   -0.02638382495586      0.61675747646735     -0.44612235208402
  C   -1.48607304941098      1.08492842616419     -0.63975989455290
  N   -2.22460733482263     -0.15221012567057     -0.91194605245997
  C   -1.64643459424153     -1.14529202540050     -0.00554149948409
  C   -0.14154454622948     -0.91833134385681     -0.19222507934967
  C   0.75403197371091     -1.36942844671013      0.96857439528746
  N   2.08966345173754     -0.77472858615525      0.89826139550913
  H   2.41691910119403      1.00885126669892      1.97779263846790
  H   2.79396436655780      1.09442317725310      0.25957858907346
  H   0.06179880679447      1.21910691836319      1.61812311977784
  H   0.78665044745992      2.38703937995730      0.52519083580846
  H   0.54530734403348      0.79298145257242     -1.36539034197049
  H   -1.83272277851133      1.58267304002751      0.28444881920922
  H   -1.59999584288293      1.79351817804050     -1.46715035258262
  H   -3.22409062874955     -0.03977042730875     -0.78062196278883
  H   -1.96665324442066     -2.15710636353907     -0.27622429914501
  H   -1.92130369992139     -0.96765347494310      1.05232989750143
  H   0.17395374637602     -1.44804071777172     -1.10005566498375
  H   0.85755870709524     -2.46055029585692      0.97812725243919
  H   0.30584762166874     -1.09225679969635      1.93174367276189
  H   2.53057115523900     -1.06434677338540      0.03251675908291
