23
Coordinates from ORCA-job file E -384.881558692957
  C       2.005400      0.698300      1.075900
  C       0.638300      1.316000      0.708600
  C      -0.005100      0.584800     -0.483500
  C      -1.439500      1.061000     -0.751400
  N      -2.321300     -0.107400     -0.718400
  C      -1.611800     -1.136800      0.033200
  C      -0.130000     -0.917700     -0.228100
  C       0.774900     -1.417100      0.920000
  N       2.087400     -0.761700      0.857900
  H       2.221200      0.913100      2.144200
  H       2.799200      1.202000      0.480300
  H      -0.033800      1.249900      1.593600
  H       0.769800      2.392700      0.465200
  H       0.623500      0.757600     -1.386800
  H      -1.771700      1.814800     -0.000700
  H      -1.502700      1.532600     -1.755400
  H      -3.205900      0.137400     -0.213900
  H      -1.927100     -2.144300     -0.312900
  H      -1.846800     -1.038100      1.118100
  H       0.147500     -1.456700     -1.162800
  H       0.908900     -2.516700      0.830500
  H       0.316900     -1.222400      1.915300
  H       2.502900     -0.941200     -0.087100
23
Coordinates from ORCA-job file E -384.888231234182
  C       2.007694      0.692021      1.074478
  C       0.633294      1.301339      0.716498
  C      -0.009562      0.594705     -0.481250
  C      -1.447290      1.081871     -0.769066
  N      -2.316223     -0.111178     -0.731751
  C      -1.631636     -1.142215      0.059243
  C      -0.142731     -0.927322     -0.223527
  C       0.794635     -1.408406      0.896916
  N       2.103264     -0.757683      0.839885
  H       2.223336      0.893979      2.132615
  H       2.797148      1.183405      0.494049
  H      -0.043192      1.225273      1.578783
  H       0.751494      2.371003      0.503986
  H       0.618273      0.765755     -1.364123
  H      -1.752818      1.833049     -0.023317
  H      -1.516233      1.554776     -1.755535
  H      -3.197984      0.120969     -0.295865
  H      -1.963701     -2.138891     -0.252642
  H      -1.832746     -1.041706      1.140975
  H       0.119967     -1.462436     -1.145438
  H       0.936133     -2.493242      0.833410
  H       0.356033     -1.203437      1.882477
  H       2.513045     -0.931530     -0.069001
23
Coordinates from ORCA-job file E -384.889251201682
  C       2.008406      0.691239      1.071809
  C       0.627267      1.290458      0.726911
  C      -0.007743      0.593749     -0.479989
  C      -1.445758      1.082417     -0.772738
  N      -2.298888     -0.122552     -0.760751
  C      -1.634772     -1.125024      0.080389
  C      -0.146781     -0.930856     -0.221118
  C       0.804301     -1.411855      0.887401
  N       2.109991     -0.756282      0.825904
  H       2.230726      0.887220      2.129330
  H       2.791941      1.188966      0.489079
  H      -0.049503      1.193764      1.586635
  H       0.729438      2.365692      0.535970
  H       0.629127      0.766317     -1.355677
  H      -1.751833      1.819150     -0.012224
  H      -1.516554      1.572375     -1.750018
  H      -3.214933      0.098561     -0.387307
  H      -1.982205     -2.128958     -0.186819
  H      -1.823089     -0.978884      1.160019
  H       0.097687     -1.468569     -1.146030
  H       0.947576     -2.496487      0.830422
  H       0.373992     -1.204970      1.876061
  H       2.521807     -0.925370     -0.085458
23
Coordinates from ORCA-job file E -384.889990361275
  C       2.011485      0.690891      1.066617
  C       0.624458      1.283273      0.736131
  C      -0.006950      0.592984     -0.476216
  C      -1.445554      1.081652     -0.769994
  N      -2.279988     -0.133440     -0.788167
  C      -1.637739     -1.109244      0.096398
  C      -0.149594     -0.932812     -0.215367
  C       0.811477     -1.415155      0.883829
  N       2.115218     -0.755677      0.814269
  H       2.243719      0.883984      2.122753
  H       2.787150      1.194008      0.477268
  H      -0.048583      1.167217      1.596707
  H       0.713676      2.362955      0.561831
  H       0.635166      0.766245     -1.348370
  H      -1.758806      1.799140      0.007116
  H      -1.516382      1.592362     -1.736947
  H      -3.226851      0.070459     -0.488287
  H      -1.997608     -2.119421     -0.129374
  H      -1.820638     -0.916165      1.170361
  H       0.077742     -1.473036     -1.143338
  H       0.955787     -2.499976      0.827385
  H       0.389269     -1.209461      1.876618
  H       2.523744     -0.920684     -0.099424
23
Coordinates from ORCA-job file E -384.890433200472
  C       2.017261      0.691330      1.059082
  C       0.626942      1.281135      0.740257
  C      -0.007200      0.592879     -0.471511
  C      -1.448263      1.080052     -0.758743
  N      -2.259497     -0.146360     -0.821823
  C      -1.641000     -1.096856      0.103534
  C      -0.151169     -0.933268     -0.207306
  C       0.814176     -1.416829      0.886809
  N       2.117844     -0.756546      0.810749
  H       2.260849      0.888982      2.111801
  H       2.785851      1.192513      0.458959
  H      -0.039856      1.154035      1.604007
  H       0.709030      2.362640      0.574032
  H       0.633168      0.764495     -1.345185
  H      -1.772851      1.763777      0.044619
  H      -1.522030      1.623958     -1.706763
  H      -3.229753      0.036265     -0.589423
  H      -2.008415     -2.111327     -0.086146
  H      -1.827928     -0.858044      1.168151
  H       0.065419     -1.474358     -1.137158
  H       0.959841     -2.501176      0.826813
  H       0.396880     -1.214432      1.882336
  H       2.520901     -0.922764     -0.105293
23
Coordinates from ORCA-job file E -384.890623917070
  C       2.028448      0.693270      1.045538
  C       0.637706      1.284942      0.736666
  C      -0.009579      0.594537     -0.466536
  C      -1.455388      1.079711     -0.734258
  N      -2.241176     -0.155751     -0.857090
  C      -1.646076     -1.096661      0.092344
  C      -0.151254     -0.932987     -0.198286
  C       0.809181     -1.411962      0.901101
  N       2.117063     -0.759309      0.818334
  H       2.287687      0.906900      2.091368
  H       2.791114      1.180825      0.426727
  H      -0.020899      1.158130      1.606654
  H       0.718879      2.366546      0.570013
  H       0.619327      0.762362     -1.349230
  H      -1.789367      1.712526      0.106977
  H      -1.538280      1.672525     -1.651473
  H      -3.227525      0.004395     -0.682715
  H      -2.014478     -2.113231     -0.082990
  H      -1.848131     -0.833845      1.148891
  H       0.071815     -1.474378     -1.126284
  H       0.951462     -2.497085      0.847111
  H       0.392749     -1.202578      1.895584
  H       2.516923     -0.938783     -0.096646
23
Coordinates from ORCA-job file E -384.890698260705
  C       2.039040      0.694882      1.032001
  C       0.648929      1.290743      0.731878
  C      -0.012604      0.598256     -0.461922
  C      -1.462126      1.080490     -0.712264
  N      -2.233619     -0.157438     -0.876118
  C      -1.648669     -1.105849      0.072478
  C      -0.149855     -0.930914     -0.193742
  C       0.799171     -1.403327      0.917442
  N       2.113164     -0.762935      0.831237
  H       2.314942      0.927649      2.069481
  H       2.795766      1.165097      0.392626
  H      -0.001941      1.169830      1.608518
  H       0.733465      2.371413      0.560690
  H       0.603216      0.764322     -1.354113
  H      -1.800925      1.674939      0.155166
  H      -1.553001      1.708380     -1.604992
  H      -3.226077     -0.011118     -0.726321
  H      -2.009950     -2.122844     -0.114577
  H      -1.868168     -0.849504      1.127222
  H       0.091515     -1.470972     -1.117940
  H       0.933617     -2.490106      0.876656
  H       0.379444     -1.179249      1.907259
  H       2.514866     -0.961643     -0.078863
23
Coordinates from ORCA-job file E -384.890782567074
  C       2.053736      0.696062      1.012004
  C       0.665419      1.300612      0.724583
  C      -0.017838      0.605432     -0.454764
  C      -1.472343      1.081292     -0.680288
  N      -2.226936     -0.157814     -0.898133
  C      -1.649291     -1.122089      0.039656
  C      -0.146820     -0.925864     -0.190250
  C       0.780999     -1.388794      0.941224
  N       2.104802     -0.768884      0.853818
  H       2.355643      0.958208      2.035179
  H       2.800608      1.137850      0.341306
  H       0.026417      1.192991      1.611529
  H       0.758362      2.378918      0.543213
  H       0.577627      0.772358     -1.360482
  H      -1.817167      1.626254      0.217305
  H      -1.574087      1.751820     -1.540153
  H      -3.223611     -0.027613     -0.762864
  H      -1.994070     -2.138756     -0.177334
  H      -1.896125     -0.890964      1.094278
  H       0.126686     -1.462420     -1.107615
  H       0.901159     -2.477975      0.922967
  H       0.353279     -1.139751      1.921418
  H       2.513749     -1.000775     -0.044796
23
Coordinates from ORCA-job file E -384.890831013490
  C       2.064788      0.696933      0.994334
  C       0.677327      1.307959      0.720611
  C      -0.022663      0.612389     -0.448355
  C      -1.480050      1.083184     -0.656091
  N      -2.226094     -0.154163     -0.906208
  C      -1.648116     -1.137987      0.010740
  C      -0.143827     -0.921004     -0.189305
  C       0.764460     -1.375764      0.960243
  N       2.096158     -0.773027      0.876847
  H       2.393171      0.986339      2.001926
  H       2.798967      1.112410      0.293121
  H       0.049413      1.210083      1.616442
  H       0.776912      2.384481      0.532134
  H       0.557988      0.783143     -1.363044
  H      -1.827166      1.597657      0.258627
  H      -1.588367      1.778825     -1.495292
  H      -3.224842     -0.035527     -0.775573
  H      -1.975853     -2.152455     -0.240827
  H      -1.915791     -0.940968      1.066980
  H       0.157274     -1.453337     -1.100583
  H       0.872407     -2.466509      0.961880
  H       0.327273     -1.105597      1.930504
  H       2.516829     -1.036964     -0.007311
23
Coordinates from ORCA-job file E -384.890840006648
  C       2.072273      0.696803      0.982571
  C       0.687277      1.314497      0.713477
  C      -0.026946      0.616562     -0.445529
  C      -1.487449      1.083017     -0.633367
  N      -2.221431     -0.154442     -0.919882
  C      -1.646482     -1.146743     -0.009550
  C      -0.141419     -0.917858     -0.189927
  C       0.752342     -1.367067      0.972463
  N       2.089502     -0.775969      0.894909
  H       2.415115      1.004299      1.979878
  H       2.800356      1.092880      0.263981
  H       0.066038      1.229313      1.614980
  H       0.794183      2.388525      0.515431
  H       0.540033      0.791198     -1.367934
  H      -1.835808      1.569564      0.296236
  H      -1.603868      1.800379     -1.452566
  H      -3.221035     -0.043045     -0.787946
  H      -1.963747     -2.158775     -0.282295
  H      -1.928051     -0.970070      1.046833
  H       0.178805     -1.448207     -1.095729
  H       0.852030     -2.458458      0.987026
  H       0.307296     -1.083334      1.935091
  H       2.521186     -1.062969      0.023648
23
Coordinates from ORCA-job file E -384.890851563954
  C       2.069853      0.697333      0.984845
  C       0.683518      1.311972      0.716617
  C      -0.026088      0.616303     -0.446588
  C      -1.485652      1.084387     -0.640649
  N      -2.224970     -0.152836     -0.911578
  C      -1.646379     -1.145046     -0.004402
  C      -0.141650     -0.918536     -0.191926
  C       0.754890     -1.369769      0.968107
  N       2.090391     -0.774976      0.895069
  H       2.412484      1.004282      1.982432
  H       2.796424      1.096284      0.266169
  H       0.060858      1.221574      1.616762
  H       0.788041      2.387018      0.522789
  H       0.545493      0.791900     -1.366035
  H      -1.832334      1.583526      0.282767
  H      -1.599208      1.791989     -1.468921
  H      -3.224019     -0.039550     -0.777864
  H      -1.966317     -2.157021     -0.274659
  H      -1.921346     -0.967004      1.053338
  H       0.173320     -1.448686     -1.099709
  H       0.857954     -2.460930      0.977962
  H       0.308518     -1.091701      1.931835
  H       2.526416     -1.060411      0.025437
23
Coordinates from ORCA-job file E -384.890854023611
  C       2.070399      0.697969      0.982750
  C       0.683343      1.311568      0.717401
  C      -0.026384      0.616757     -0.446122
  C      -1.486073      1.084928     -0.639760
  N      -2.224607     -0.152210     -0.911946
  C      -1.646435     -1.145292     -0.005541
  C      -0.141545     -0.918331     -0.192225
  C       0.754032     -1.369428      0.968574
  N       2.089663     -0.774729      0.898261
  H       2.416919      1.008851      1.977793
  H       2.793964      1.094423      0.259579
  H       0.061799      1.219107      1.618123
  H       0.786650      2.387039      0.525191
  H       0.545307      0.792981     -1.365390
  H      -1.832723      1.582673      0.284449
  H      -1.599996      1.793518     -1.467150
  H      -3.224091     -0.039770     -0.780622
  H      -1.966653     -2.157106     -0.276224
  H      -1.921304     -0.967653      1.052330
  H       0.173954     -1.448041     -1.100056
  H       0.857559     -2.460550      0.978127
  H       0.305848     -1.092257      1.931744
  H       2.530571     -1.064347      0.032517
