24
Coordinates from ORCA-job file E -460.120935894962
  C       1.863400     -0.010500     -1.181700
  C       0.584900     -0.827800     -0.941700
  C      -0.300800     -0.180300      0.142200
  C       0.548200      0.065600      1.410500
  C       1.828300      0.849100      1.082300
  N       2.629700      0.163300      0.059700
  N      -1.426200     -1.081400      0.433400
  C      -2.525100     -0.527200     -0.323600
  C      -2.173900      0.922300     -0.520000
  O      -0.790400      1.058900     -0.337600
  H       1.608500      0.983400     -1.611300
  H       2.495900     -0.539100     -1.927000
  H       0.019100     -0.905300     -1.895700
  H       0.865700     -1.858400     -0.630100
  H      -0.045700      0.639000      2.155500
  H       0.826700     -0.908100      1.871300
  H       2.434700      0.954900      2.007500
  H       1.572100      1.875000      0.736900
  H       2.909900     -0.779000      0.421900
  H      -1.686100     -1.017400      1.447100
  H      -3.493300     -0.644000      0.213600
  H      -2.589100     -1.044600     -1.305700
  H      -2.700200      1.549100      0.231800
  H      -2.456200      1.262200     -1.539200
24
Coordinates from ORCA-job file E -460.129798751988
  C       1.855824     -0.018228     -1.173503
  C       0.580786     -0.838642     -0.928588
  C      -0.286485     -0.206285      0.169832
  C       0.556494      0.050685      1.420677
  C       1.836593      0.830180      1.079005
  N       2.643079      0.180540      0.045663
  N      -1.431164     -1.059724      0.464769
  C      -2.532529     -0.537421     -0.345775
  C      -2.195766      0.948471     -0.532057
  O      -0.794979      1.050352     -0.317213
  H       1.590664      0.967638     -1.574320
  H       2.485810     -0.516514     -1.919507
  H      -0.005161     -0.916579     -1.853379
  H       0.846774     -1.856587     -0.616452
  H      -0.044563      0.612840      2.148327
  H       0.823248     -0.915592      1.871085
  H       2.448822      0.953465      1.979949
  H       1.569098      1.832826      0.724578
  H       2.949650     -0.724868      0.389651
  H      -1.671366     -0.978781      1.446565
  H      -3.489378     -0.681918      0.163440
  H      -2.572991     -1.061851     -1.307549
  H      -2.722438      1.574906      0.202355
  H      -2.439923      1.310788     -1.537453
24
Coordinates from ORCA-job file E -460.130682616788
  C       1.824579     -0.019609     -1.179677
  C       0.553701     -0.838762     -0.915052
  C      -0.287926     -0.208673      0.202896
  C       0.572054      0.040897      1.440501
  C       1.845602      0.821466      1.080523
  N       2.634439      0.189530      0.022840
  N      -1.444208     -1.036341      0.506889
  C      -2.505323     -0.547720     -0.374640
  C      -2.188380      0.949578     -0.541768
  O      -0.794533      1.064905     -0.266940
  H       1.549062      0.966999     -1.571251
  H       2.445141     -0.510821     -1.937288
  H      -0.051245     -0.917244     -1.826617
  H       0.819718     -1.856922     -0.603825
  H      -0.022542      0.597490      2.176605
  H       0.841201     -0.929979      1.878336
  H       2.476194      0.944702      1.967883
  H       1.566485      1.823903      0.734911
  H       2.975692     -0.709674      0.355206
  H      -1.708392     -0.909565      1.480359
  H      -3.484929     -0.721948      0.078108
  H      -2.474616     -1.076574     -1.333805
  H      -2.747034      1.563768      0.178267
  H      -2.394641      1.320293     -1.552362
24
Coordinates from ORCA-job file E -460.130989741532
  C       1.795270     -0.021690     -1.185092
  C       0.533703     -0.848306     -0.899785
  C      -0.290990     -0.214822      0.228100
  C       0.583809      0.027803      1.455414
  C       1.847640      0.817469      1.080761
  N       2.622192      0.204325      0.002099
  N      -1.458980     -1.023373      0.538727
  C      -2.484531     -0.550730     -0.394826
  C      -2.178059      0.952148     -0.543018
  O      -0.790225      1.071284     -0.232139
  H       1.503593      0.960451     -1.576428
  H       2.408439     -0.510101     -1.950409
  H      -0.082672     -0.934433     -1.802560
  H       0.807985     -1.863784     -0.586373
  H      -0.002513      0.576942      2.203773
  H       0.861409     -0.946070      1.880490
  H       2.494453      0.936772      1.956837
  H       1.555615      1.821586      0.750629
  H       3.006317     -0.681264      0.321323
  H      -1.748791     -0.834507      1.494971
  H      -3.485183     -0.752918     -0.003941
  H      -2.382327     -1.074560     -1.351341
  H      -2.757964      1.556362      0.168570
  H      -2.358090      1.331116     -1.555680
24
Coordinates from ORCA-job file E -460.131038838816
  C       1.795207     -0.020267     -1.185245
  C       0.538118     -0.853715     -0.898850
  C      -0.290779     -0.219673      0.225694
  C       0.583100      0.022033      1.454134
  C       1.844174      0.817889      1.082530
  N       2.620917      0.212919      0.001065
  N      -1.461297     -1.027209      0.536247
  C      -2.492182     -0.546458     -0.389511
  C      -2.175763      0.952989     -0.544982
  O      -0.787406      1.065887     -0.237159
  H       1.497011      0.958767     -1.579498
  H       2.410705     -0.507406     -1.949561
  H      -0.075270     -0.945559     -1.802957
  H       0.817885     -1.866856     -0.582626
  H      -0.003840      0.566271      2.205681
  H       0.864753     -0.952361      1.875438
  H       2.491283      0.933888      1.958926
  H       1.548567      1.823071      0.758860
  H       3.019364     -0.667350      0.317663
  H      -1.749105     -0.825499      1.490832
  H      -3.492913     -0.743268      0.004309
  H      -2.396386     -1.070861     -1.345991
  H      -2.751434      1.563941      0.164272
  H      -2.354608      1.328526     -1.559171
24
Coordinates from ORCA-job file E -460.131074288982
  C       1.774844     -0.001541     -1.187106
  C       0.517495     -0.833284     -0.895186
  C      -0.296307     -0.209133      0.247654
  C       0.595546      0.010023      1.466806
  C       1.854246      0.807412      1.090752
  N       2.614945      0.213416     -0.007850
  N      -1.461761     -1.018030      0.563087
  C      -2.483370     -0.556387     -0.381383
  C      -2.160785      0.938660     -0.581893
  O      -0.797706      1.081372     -0.183988
  H       1.476700      0.982073     -1.570138
  H       2.379704     -0.485066     -1.962500
  H      -0.102932     -0.912330     -1.796344
  H       0.798758     -1.850967     -0.595181
  H       0.021348      0.544660      2.234954
  H       0.879863     -0.971534      1.869334
  H       2.511951      0.906507      1.961619
  H       1.558410      1.818604      0.786526
  H       3.016663     -0.670444      0.293686
  H      -1.759036     -0.797334      1.510349
  H      -3.487767     -0.736691      0.011324
  H      -2.385457     -1.106625     -1.323063
  H      -2.777598      1.574051      0.067706
  H      -2.287654      1.272288     -1.619066
24
Coordinates from ORCA-job file E -460.131123510634
  C       1.765490      0.008304     -1.187532
  C       0.509478     -0.825011     -0.894055
  C      -0.297732     -0.206879      0.256847
  C       0.600763      0.003405      1.472361
  C       1.857648      0.803180      1.095386
  N       2.611749      0.216803     -0.011786
  N      -1.462450     -1.017412      0.573040
  C      -2.481729     -0.559697     -0.376109
  C      -2.151596      0.932264     -0.597563
  O      -0.802057      1.085405     -0.159860
  H       1.465218      0.993878     -1.563804
  H       2.366216     -0.471261     -1.968575
  H      -0.115022     -0.897905     -1.793006
  H       0.791576     -1.844861     -0.602529
  H       0.031326      0.532000      2.248183
  H       0.887132     -0.981254      1.865456
  H       2.520518      0.894300      1.963155
  H       1.561092      1.817158      0.801356
  H       3.017730     -0.667875      0.281056
  H      -1.762239     -0.788314      1.517606
  H      -3.486458     -0.725106      0.022251
  H      -2.392890     -1.124547     -1.309958
  H      -2.786761      1.585066      0.015149
  H      -2.246902      1.238061     -1.646969
24
Coordinates from ORCA-job file E -460.131193053474
  C       1.747558      0.026902     -1.188255
  C       0.493730     -0.808907     -0.892200
  C      -0.300944     -0.203098      0.274310
  C       0.609947     -0.008303      1.482526
  C       1.863461      0.795506      1.103158
  N       2.605433      0.222475     -0.019051
  N      -1.463916     -1.015825      0.591920
  C      -2.478974     -0.565592     -0.365926
  C      -2.131856      0.919374     -0.627319
  O      -0.811335      1.092242     -0.115087
  H       1.444025      1.016536     -1.551103
  H       2.340357     -0.444661     -1.980141
  H      -0.138734     -0.869861     -1.786643
  H       0.776899     -1.832867     -0.616843
  H       0.048846      0.509894      2.271247
  H       0.899673     -0.998196      1.859256
  H       2.535561      0.873806      1.965010
  H       1.565417      1.813795      0.826105
  H       3.016592     -0.664574      0.258558
  H      -1.767414     -0.775314      1.532476
  H      -3.484147     -0.704404      0.041297
  H      -2.405861     -1.156146     -1.285024
  H      -2.796898      1.601633     -0.083965
  H      -2.167321      1.175287     -1.694207
24
Coordinates from ORCA-job file E -460.131267412055
  C       1.732571      0.045366     -1.188399
  C       0.481332     -0.794146     -0.892019
  C      -0.303041     -0.201750      0.288212
  C       0.616947     -0.019007      1.490817
  C       1.867376      0.789123      1.110588
  N       2.599912      0.229298     -0.024482
  N      -1.464945     -1.017747      0.605151
  C      -2.480818     -0.569190     -0.353769
  C      -2.111371      0.906435     -0.654558
  O      -0.820517      1.095236     -0.077681
  H       1.425436      1.038899     -1.537391
  H       2.319077     -0.416723     -1.990412
  H      -0.158572     -0.844069     -1.781947
  H       0.765274     -1.821819     -0.632117
  H       0.061721      0.489588      2.289806
  H       0.909603     -1.013024      1.853753
  H       2.547004      0.856942      1.967313
  H       1.567743      1.810800      0.848213
  H       3.015078     -0.660105      0.238991
  H      -1.768203     -0.772902      1.544617
  H      -3.483159     -0.676938      0.069423
  H      -2.433699     -1.183537     -1.258811
  H      -2.797576      1.618353     -0.181912
  H      -2.087072      1.110617     -1.733286
24
Coordinates from ORCA-job file E -460.131319586203
  C       1.727439      0.060930     -1.187369
  C       0.478820     -0.783782     -0.895775
  C      -0.301515     -0.204671      0.292732
  C       0.619416     -0.026431      1.494818
  C       1.868640      0.784994      1.117514
  N       2.598679      0.236233     -0.024839
  N      -1.463805     -1.025512      0.604270
  C      -2.492456     -0.567789     -0.338349
  C      -2.097640      0.896418     -0.675163
  O      -0.826650      1.092854     -0.060742
  H       1.416936      1.058099     -1.522854
  H       2.311813     -0.389822     -1.997130
  H      -0.166128     -0.826364     -1.782254
  H       0.762796     -1.814138     -0.647403
  H       0.064230      0.476139      2.297553
  H       0.912948     -1.022487      1.851038
  H       2.551213      0.847387      1.972117
  H       1.568090      1.808497      0.863537
  H       3.014794     -0.655808      0.228318
  H      -1.758491     -0.792092      1.549202
  H      -3.483948     -0.640934      0.116445
  H      -2.489219     -1.199909     -1.232421
  H      -2.791565      1.636980     -0.263058
  H      -2.024297      1.050909     -1.760088
24
Coordinates from ORCA-job file E -460.131324517889
  C       1.717873      0.071644     -1.187912
  C       0.470323     -0.774334     -0.895190
  C      -0.304385     -0.203022      0.301333
  C       0.623122     -0.032284      1.499209
  C       1.870364      0.781480      1.120201
  N       2.594869      0.238891     -0.028571
  N      -1.464570     -1.025848      0.612602
  C      -2.492927     -0.568843     -0.331625
  C      -2.082882      0.887149     -0.690827
  O      -0.834268      1.096075     -0.036853
  H       1.406565      1.071030     -1.516108
  H       2.298011     -0.374689     -2.003227
  H      -0.177788     -0.812847     -1.779656
  H       0.755738     -1.806057     -0.654224
  H       0.071969      0.466064      2.307310
  H       0.918317     -1.030301      1.848453
  H       2.556822      0.839384      1.972073
  H       1.568411      1.806279      0.873144
  H       3.010645     -0.655223      0.217953
  H      -1.759779     -0.793131      1.557445
  H      -3.483419     -0.626665      0.127733
  H      -2.500180     -1.210973     -1.218455
  H      -2.785918      1.639294     -0.318051
  H      -1.976813      1.016629     -1.776657
24
Coordinates from ORCA-job file E -460.131343328286
  C       1.727414      0.062399     -1.187965
  C       0.478850     -0.782251     -0.895809
  C      -0.302663     -0.204510      0.293443
  C       0.619471     -0.027493      1.494873
  C       1.868111      0.784596      1.116298
  N       2.598971      0.234832     -0.025027
  N      -1.462870     -1.025581      0.603383
  C      -2.494644     -0.565580     -0.335455
  C      -2.094571      0.894820     -0.678787
  O      -0.828373      1.095655     -0.056189
  H       1.417990      1.060135     -1.522911
  H       2.311257     -0.388267     -1.998322
  H      -0.164465     -0.829068     -1.783259
  H       0.765071     -1.811558     -0.645236
  H       0.064402      0.476846      2.296590
  H       0.913231     -1.023057      1.852607
  H       2.549742      0.849831      1.971611
  H       1.566001      1.807095      0.859937
  H       3.010618     -0.659016      0.229842
  H      -1.755922     -0.801871      1.550991
  H      -3.485712     -0.639840      0.120536
  H      -2.491498     -1.195380     -1.231096
  H      -2.790078      1.634089     -0.266731
  H      -2.020233      1.052871     -1.763226
24
Coordinates from ORCA-job file E -460.131347662595
  C       1.725830      0.065468     -1.187714
  C       0.477330     -0.779410     -0.896368
  C      -0.302456     -0.204464      0.295074
  C       0.620248     -0.028675      1.496122
  C       1.868825      0.783585      1.117821
  N       2.598484      0.235816     -0.025289
  N      -1.462736     -1.026676      0.604164
  C      -2.495866     -0.566071     -0.333032
  C      -2.092035      0.892607     -0.682960
  O      -0.830255      1.095093     -0.052276
  H       1.416182      1.064013     -1.520083
  H       2.308844     -0.383405     -1.999622
  H      -0.167719     -0.823212     -1.782790
  H       0.762856     -1.809638     -0.648970
  H       0.065681      0.474261      2.299064
  H       0.914032     -1.024837      1.852083
  H       2.551511      0.847251      1.972381
  H       1.566858      1.806601      0.863433
  H       3.010612     -0.658497      0.227162
  H      -1.755017     -0.803510      1.552107
  H      -3.485085     -0.634064      0.127809
  H      -2.499859     -1.199531     -1.226075
  H      -2.789190      1.637084     -0.283777
  H      -2.006976      1.039910     -1.768165
24
Coordinates from ORCA-job file E -460.131347683707
  C       1.725287      0.066546     -1.187681
  C       0.476808     -0.778431     -0.896570
  C      -0.302565     -0.204506      0.295636
  C       0.620499     -0.029216      1.496455
  C       1.868895      0.783333      1.118148
  N       2.598287      0.236111     -0.025397
  N      -1.462682     -1.027097      0.604451
  C      -2.496403     -0.566028     -0.332000
  C      -2.090724      0.891736     -0.684522
  O      -0.830936      1.095169     -0.050302
  H       1.415679      1.065358     -1.519306
  H       2.308015     -0.381842     -2.000059
  H      -0.168537     -0.821530     -1.782802
  H       0.762257     -1.808905     -0.650120
  H       0.066080      0.473317      2.299746
  H       0.914448     -1.025509      1.851904
  H       2.551807      0.846820      1.972539
  H       1.566759      1.806404      0.864163
  H       3.010188     -0.658470      0.226492
  H      -1.754579     -0.804805      1.552696
  H      -3.485085     -0.631950      0.130297
  H      -2.502651     -1.200529     -1.224285
  H      -2.788496      1.637788     -0.289492
  H      -2.002253      1.035937     -1.769890
