24
Coordinates from ORCA-job file
  C   1.72528736736104      0.06654620418105     -1.18768070483473
  C   0.47680828589647     -0.77843124653172     -0.89656961375043
  C   -0.30256492137891     -0.20450593538034      0.29563577303289
  C   0.62049914539068     -0.02921613288056      1.49645480386918
  C   1.86889509483572      0.78333272462593      1.11814799797195
  N   2.59828677200877      0.23611059579649     -0.02539748217499
  N   -1.46268163174866     -1.02709710231789      0.60445128615920
  C   -2.49640321758828     -0.56602777018582     -0.33200039132621
  C   -2.09072361246698      0.89173622625681     -0.68452154035326
  O   -0.83093586591309      1.09516898684700     -0.05030200851547
  H   1.41567918487432      1.06535761424777     -1.51930599071652
  H   2.30801545725492     -0.38184220839664     -2.00005878398379
  H   -0.16853733576799     -0.82152980553770     -1.78280245840667
  H   0.76225653205337     -1.80890528368184     -0.65011993831228
  H   0.06608000749937      0.47331708460719      2.29974611239706
  H   0.91444801574101     -1.02550864058999      1.85190360384162
  H   2.55180696318464      0.84681978735718      1.97253867979623
  H   1.56675922621994      1.80640400334483      0.86416275466910
  H   3.01018814209211     -0.65846980563693      0.22649175689379
  H   -1.75457920140121     -0.80480525274587      1.55269574125006
  H   -3.48508451348278     -0.63194994110424      0.13029731552846
  H   -2.50265075894723     -1.20052865715550     -1.22428456805777
  H   -2.78849583936247      1.63778763326439     -0.28949243145114
  H   -2.00225329635476      1.03593692161640     -1.76988991352630
