35
Coordinates from ORCA-job file
  C   -4.20193687427663      1.81192366624078     -1.12060091553415
  O   -3.88283687603193      0.94729687444660     -0.05495247882558
  C   -2.69000777651498      0.30429360035104     -0.05492247456523
  C   -2.45899634625965     -0.53478462907828      1.04298173557759
  C   -1.25456760417338     -1.23901118743894      1.13404969499097
  O   -0.95917794879807     -2.06380162434412      2.15983720305288
  C   -1.89199418614576     -2.23524988582092      3.20240306412624
  C   -0.27085861554684     -1.11431265356199      0.12560001829730
  S   1.22090015011981     -2.06661624688502      0.21381415365848
  C   2.49104893342720     -0.82314328835580      0.29404343467035
  C   3.80093196405126     -1.22817698112397     -0.00863257694464
  C   4.86018648362472     -0.32407806849770      0.05866209106330
  C   4.61101859732490      1.00249019576621      0.41861296263919
  Cl  5.93380421659817      2.14737855666890      0.48779629264472
  C   3.31302324206974      1.42150026613598      0.71984041059631
  C   2.25935911043366      0.50929187990980      0.66265152792524
  C   -0.53391153039356     -0.27607401043579     -0.97627645971653
  O   0.44167029011624     -0.19795939686663     -1.90410292156625
  C   0.30105429823926      0.67061754248341     -3.00350269567949
  C   -1.73317367409918      0.44885659487107     -1.06763054671548
  H   -3.48889373293662      2.65324327543458     -1.19452499272620
  H   -4.22541071474078      1.27975036387976     -2.08891838097838
  H   -5.20308717414385      2.21213561020019     -0.91057802438556
  H   -3.23797254092242     -0.60907921711156      1.79858435893240
  H   -1.43620965774799     -2.93779411568982      3.91292147770042
  H   -2.10495027221882     -1.28423626774987      3.72280060267459
  H   -2.84305896363392     -2.66054403980137      2.83465176698485
  H   3.99329035576259     -2.26153620564044     -0.30911796256776
  H   5.87738208075559     -0.64150635417455     -0.17772551074544
  H   3.13121126566026      2.45970626838107      1.00418078710760
  H   1.24790883023329      0.83805973048585      0.90744425593400
  H   1.22026041713315      0.57088178801000     -3.59577069097482
  H   -0.56429185804396      0.39848709248842     -3.63446759477779
  H   0.19380853773710      1.72221980016341     -2.68213825057793
  H   -1.91542242665863      1.09987106665971     -1.91721336129519
