35
Coordinates from ORCA-job file E -1663.278473383531
  C      -4.011900      2.049000     -1.354800
  O      -3.556100      1.306000     -0.228800
  C      -2.432600      0.465200     -0.233000
  C      -2.103000     -0.201900      0.949600
  C      -0.987400     -1.056500      1.008800
  O      -0.640000     -1.742900      2.183700
  C      -1.335600     -1.632400      3.420800
  C      -0.193600     -1.232500     -0.136900
  S       1.248400     -2.309300     -0.068400
  C       2.346700     -0.978000      0.422600
  C       3.013500     -0.222100     -0.550200
  C       3.864000      0.819700     -0.167400
  C       4.055700      1.105500      1.189100
  Cl      5.122000      2.413000      1.668900
  C       3.398200      0.344700      2.162500
  C       2.547600     -0.697300      1.780300
  C      -0.518800     -0.577500     -1.336700
  O       0.290100     -0.794800     -2.464100
  C       0.097800     -0.174700     -3.731100
  C      -1.638600      0.273900     -1.377300
  H      -3.226400      2.760700     -1.686100
  H      -4.279300      1.360400     -2.184000
  H      -4.914700      2.625600     -1.067200
  H      -2.726900     -0.046800      1.819300
  H      -0.836500     -2.274600      4.175000
  H      -1.313000     -0.581400      3.778600
  H      -2.385100     -1.974700      3.301000
  H       2.873700     -0.438800     -1.601300
  H       4.373100      1.402700     -0.924300
  H       3.545900      0.559000      3.213200
  H       2.045800     -1.283100      2.539500
  H       0.888500     -0.521700     -4.427300
  H      -0.891800     -0.456700     -4.148400
  H       0.172300      0.928800     -3.631100
  H      -1.891900      0.783600     -2.294700
35
Coordinates from ORCA-job file E -1663.294231388253
  C      -3.979450      1.915952     -1.384399
  O      -3.581634      1.221521     -0.223918
  C      -2.471355      0.430932     -0.241294
  C      -2.138987     -0.219272      0.946577
  C      -1.008479     -1.043156      0.994936
  O      -0.643438     -1.688973      2.135793
  C      -1.396384     -1.527234      3.316640
  C      -0.201615     -1.217435     -0.141577
  S       1.262085     -2.263737     -0.070595
  C       2.407670     -0.970370      0.432099
  C       3.086133     -0.215868     -0.533600
  C       3.962720      0.800126     -0.145083
  C       4.166789      1.057350      1.213216
  Cl      5.262029      2.331052      1.701755
  C       3.503178      0.301900      2.183636
  C       2.627149     -0.713195      1.791528
  C      -0.550912     -0.562142     -1.332067
  O       0.250684     -0.749542     -2.416818
  C      -0.029211     -0.091970     -3.631465
  C      -1.681482      0.265193     -1.385837
  H      -3.197248      2.626530     -1.710457
  H      -4.212130      1.214922     -2.207495
  H      -4.887710      2.480052     -1.132015
  H      -2.770541     -0.071078      1.822282
  H      -0.909731     -2.129062      4.096350
  H      -1.410407     -0.469286      3.637557
  H      -2.431946     -1.889285      3.180576
  H       2.923057     -0.414986     -1.592870
  H       4.485730      1.390189     -0.899536
  H       3.668188      0.503560      3.243345
  H       2.105744     -1.300582      2.547462
  H       0.750504     -0.386556     -4.347042
  H      -1.013768     -0.397236     -4.031400
  H      -0.001632      1.006336     -3.505115
  H      -1.943501      0.775453     -2.311371
35
Coordinates from ORCA-job file E -1663.295521866936
  C      -4.017286      1.869087     -1.398488
  O      -3.631950      1.178935     -0.233640
  C      -2.512991      0.419453     -0.254324
  C      -2.188187     -0.223712      0.943484
  C      -1.043079     -1.026756      1.006299
  O      -0.662450     -1.658220      2.136912
  C      -1.436149     -1.512587      3.304257
  C      -0.218781     -1.197590     -0.124000
  S       1.242065     -2.233211     -0.040522
  C       2.423749     -0.963765      0.439769
  C       3.097816     -0.222240     -0.538888
  C       4.003196      0.774901     -0.170434
  C       4.236023      1.025841      1.184043
  Cl      5.363421      2.277823      1.649668
  C       3.577149      0.287509      2.170257
  C       2.672847     -0.707879      1.794230
  C      -0.559138     -0.534928     -1.316263
  O       0.273818     -0.703896     -2.366200
  C      -0.000439     -0.047894     -3.580609
  C      -1.704564      0.274509     -1.389766
  H      -3.249318      2.598627     -1.713000
  H      -4.222853      1.176029     -2.234091
  H      -4.940221      2.410260     -1.151601
  H      -2.836598     -0.080082      1.804714
  H      -0.934631     -2.100685      4.084206
  H      -1.490175     -0.458183      3.628623
  H      -2.460000     -1.902778      3.166014
  H       2.901699     -0.419099     -1.594335
  H       4.526327      1.356536     -0.932371
  H       3.769371      0.490485      3.225867
  H       2.145403     -1.282988      2.557196
  H       0.805265     -0.325764     -4.272831
  H      -0.965576     -0.370839     -4.010164
  H      -0.005070      1.050299     -3.459780
  H      -1.958592      0.782903     -2.314431
35
Coordinates from ORCA-job file E -1663.295493179244
  C      -4.123506      1.817177     -1.384740
  O      -3.663962      1.162663     -0.225369
  C      -2.527261      0.431769     -0.286083
  C      -2.135433     -0.171054      0.915658
  C      -0.971755     -0.947676      0.948906
  O      -0.516689     -1.537432      2.073869
  C      -1.239177     -1.385551      3.273543
  C      -0.196948     -1.138875     -0.217200
  S       1.265358     -2.164064     -0.178360
  C       2.443961     -0.951043      0.434463
  C       3.219823     -0.204363     -0.461762
  C       4.129955      0.743246      0.010208
  C       4.263879      0.937593      1.387380
  Cl      5.398153      2.126374      1.983884
  C       3.503668      0.194725      2.294163
  C       2.595415     -0.749856      1.812422
  C      -0.602361     -0.508917     -1.409631
  O       0.190063     -0.693051     -2.487917
  C      -0.153723     -0.089527     -3.712501
  C      -1.768363      0.275170     -1.453672
  H      -3.393817      2.559727     -1.754865
  H      -4.350796      1.104438     -2.197735
  H      -5.047712      2.338672     -1.101480
  H      -2.751471     -0.011947      1.797221
  H      -0.682272     -1.941765      4.039617
  H      -1.311838     -0.326734      3.579243
  H      -2.257682     -1.805564      3.196701
  H       3.096900     -0.361283     -1.534700
  H       4.734880      1.329380     -0.684484
  H       3.622884      0.356641      3.367285
  H       1.985076     -1.329321      2.507666
  H       0.629582     -0.376036     -4.427116
  H      -1.127800     -0.448266     -4.090222
  H      -0.182753      1.012201     -3.636149
  H      -2.074177      0.752650     -2.378446
35
Coordinates from ORCA-job file E -1663.295783593148
  C      -4.150710      1.795162     -1.425265
  O      -3.721400      1.129081     -0.259504
  C      -2.565613      0.421177     -0.285374
  C      -2.217476     -0.192500      0.926775
  C      -1.045995     -0.952124      1.002358
  O      -0.631437     -1.558051      2.136824
  C      -1.414561     -1.451851      3.304299
  C      -0.217188     -1.117909     -0.134428
  S       1.233438     -2.148250     -0.058615
  C       2.453575     -0.931486      0.455510
  C       3.167693     -0.200274     -0.502984
  C       4.122701      0.739143     -0.110530
  C       4.362963      0.939834      1.251346
  Cl      5.556633      2.116144      1.750170
  C       3.666462      0.213305      2.220717
  C       2.713752     -0.723523      1.816410
  C      -0.579061     -0.472763     -1.334898
  O       0.265155     -0.632104     -2.380037
  C      -0.034458     -0.030702     -3.618305
  C      -1.755119      0.294157     -1.420531
  H      -3.424288      2.559293     -1.756479
  H      -4.330272      1.094512     -2.260665
  H      -5.096664      2.291784     -1.168697
  H      -2.879577     -0.052025      1.777916
  H      -0.883839     -2.018255      4.082053
  H      -1.525876     -0.403460      3.634125
  H      -2.420769     -1.886900      3.168350
  H       2.959267     -0.366709     -1.561063
  H       4.682002      1.313389     -0.851242
  H       3.873421      0.381711      3.279009
  H       2.152322     -1.294848      2.557275
  H       0.785631     -0.301613     -4.297565
  H      -0.984537     -0.403235     -4.041860
  H      -0.088280      1.070429     -3.543303
  H      -2.027796      0.779560     -2.351993
35
Coordinates from ORCA-job file E -1663.295838401988
  C      -4.121422      1.801369     -1.427212
  O      -3.708428      1.131231     -0.258737
  C      -2.558945      0.412529     -0.276450
  C      -2.218463     -0.207446      0.932921
  C      -1.051272     -0.972515      1.009547
  O      -0.647315     -1.580339      2.147219
  C      -1.437877     -1.468753      3.308506
  C      -0.218461     -1.135194     -0.122100
  S       1.232415     -2.168278     -0.041845
  C       2.446366     -0.938343      0.452595
  C       3.150127     -0.213192     -0.518002
  C       4.101427      0.736031     -0.140354
  C       4.347831      0.953986      1.217834
  Cl      5.538622      2.141738      1.697399
  C       3.656629      0.237341      2.198389
  C       2.706948     -0.709405      1.810031
  C      -0.571605     -0.484093     -1.319719
  O       0.277795     -0.631220     -2.362792
  C      -0.015954     -0.013631     -3.593736
  C      -1.742605      0.288492     -1.406585
  H      -3.382158      2.556825     -1.750550
  H      -4.300560      1.099813     -2.262326
  H      -5.064053      2.308844     -1.180953
  H      -2.881915     -0.066935      1.783459
  H      -0.920007     -2.038748      4.091849
  H      -1.541828     -0.418528      3.635570
  H      -2.445941     -1.896131      3.161099
  H       2.938377     -0.392527     -1.573396
  H       4.653202      1.304853     -0.890815
  H       3.864403      0.421310      3.253914
  H       2.150646     -1.272917      2.560871
  H       0.803858     -0.276551     -4.275988
  H      -0.966815     -0.379587     -4.021738
  H      -0.066434      1.086597     -3.501727
  H      -2.006486      0.783476     -2.336380
35
Coordinates from ORCA-job file E -1663.295847574875
  C      -4.133183      1.793754     -1.425121
  O      -3.716178      1.125963     -0.256884
  C      -2.562864      0.413548     -0.275381
  C      -2.219331     -0.205946      0.933380
  C      -1.049256     -0.966499      1.008637
  O      -0.642651     -1.574430      2.145182
  C      -1.435758     -1.470904      3.305416
  C      -0.216742     -1.125985     -0.123754
  S       1.233775     -2.159078     -0.046703
  C       2.450540     -0.933632      0.451148
  C       3.172591     -0.223673     -0.517358
  C       4.128112      0.719985     -0.136596
  C       4.360238      0.947344      1.222573
  Cl      5.557844      2.126741      1.706149
  C       3.650876      0.245934      2.201137
  C       2.697326     -0.695533      1.809638
  C      -0.572661     -0.474594     -1.320047
  O       0.275383     -0.619980     -2.364406
  C      -0.024553     -0.008602     -3.596782
  C      -1.746898      0.293447     -1.406090
  H      -3.398153      2.553201     -1.748624
  H      -4.308374      1.091194     -2.260196
  H      -5.078542      2.295955     -1.178782
  H      -2.883717     -0.067819      1.783513
  H      -0.917240     -2.042027      4.087403
  H      -1.544566     -0.422461      3.636510
  H      -2.441817     -1.901406      3.153965
  H       2.970905     -0.410585     -1.573386
  H       4.694347      1.277562     -0.884787
  H       3.848177      0.437885      3.257292
  H       2.126215     -1.247422      2.558055
  H       0.793648     -0.271640     -4.280824
  H      -0.975768     -0.379280     -4.019771
  H      -0.078287      1.091805     -3.509188
  H      -2.013341      0.787277     -2.335519
35
Coordinates from ORCA-job file E -1663.295876616611
  C      -4.149140      1.782848     -1.414371
  O      -3.737117      1.107379     -0.249017
  C      -2.576124      0.407431     -0.263161
  C      -2.239731     -0.222632      0.942283
  C      -1.063763     -0.973250      1.021172
  O      -0.662789     -1.589790      2.155135
  C      -1.475814     -1.518017      3.303933
  C      -0.219049     -1.114727     -0.104755
  S       1.230938     -2.146892     -0.028118
  C       2.458347     -0.922381      0.442941
  C       3.234995     -0.290070     -0.537226
  C       4.203887      0.647292     -0.175437
  C       4.393024      0.946873      1.176378
  Cl      5.609799      2.116250      1.636804
  C       3.627705      0.325028      2.166516
  C       2.662262     -0.611785      1.794066
  C      -0.567113     -0.451043     -1.295802
  O       0.293100     -0.578022     -2.332531
  C      -0.004087      0.032865     -3.565469
  C      -1.747162      0.308222     -1.386285
  H      -3.419006      2.553428     -1.722007
  H      -4.307273      1.087181     -2.258520
  H      -5.102511      2.272106     -1.173315
  H      -2.915857     -0.097056      1.784975
  H      -0.963770     -2.097944      4.083524
  H      -1.602530     -0.477414      3.652849
  H      -2.474010     -1.956523      3.126661
  H       3.063588     -0.533073     -1.587152
  H       4.813685      1.145641     -0.931261
  H       3.792913      0.574960      3.216103
  H       2.046617     -1.103373      2.549392
  H       0.820151     -0.222102     -4.245166
  H      -0.949876     -0.344494     -3.994440
  H      -0.067124      1.132630     -3.476340
  H      -2.007065      0.810554     -2.312561
35
Coordinates from ORCA-job file E -1663.295878105222
  C      -4.163479      1.772215     -1.415025
  O      -3.750525      1.097224     -0.249615
  C      -2.584636      0.405265     -0.261149
  C      -2.248786     -0.225052      0.944673
  C      -1.068177     -0.967873      1.026938
  O      -0.666466     -1.582038      2.162390
  C      -1.491516     -1.529779      3.303924
  C      -0.219397     -1.103594     -0.097098
  S       1.229624     -2.136315     -0.023161
  C       2.462634     -0.915191      0.440926
  C       3.254445     -0.306060     -0.541621
  C       4.233027      0.623273     -0.184825
  C       4.414803      0.939139      1.164224
  Cl      5.645025      2.096875      1.618943
  C       3.632142      0.342731      2.156674
  C       2.658535     -0.587322      1.789395
  C      -0.566012     -0.437623     -1.287224
  O       0.301308     -0.554761     -2.318934
  C       0.001910      0.047408     -3.555574
  C      -1.750113      0.315117     -1.380944
  H      -3.437994      2.548795     -1.718617
  H      -4.313483      1.077294     -2.261291
  H      -5.121306      2.253983     -1.176317
  H      -2.929491     -0.103164      1.784250
  H      -0.980926     -2.111563      4.083124
  H      -1.632975     -0.493902      3.661326
  H      -2.483185     -1.976875      3.112322
  H       3.086557     -0.561041     -1.589292
  H       4.855652      1.103700     -0.941752
  H       3.791916      0.606631      3.203642
  H       2.029339     -1.060295      2.545494
  H       0.828828     -0.205706     -4.232787
  H      -0.940854     -0.338342     -3.983825
  H      -0.068371      1.147263     -3.472753
  H      -2.007956      0.819683     -2.306637
35
Coordinates from ORCA-job file E -1663.295544978417
  C      -4.032068      1.855477     -1.364184
  O      -3.699520      1.103890     -0.216292
  C      -2.561982      0.366533     -0.207792
  C      -2.299357     -0.326257      0.983453
  C      -1.136394     -1.096600      1.096880
  O      -0.813540     -1.754763      2.239527
  C      -1.707950     -1.728192      3.332395
  C      -0.237061     -1.195601      0.006020
  S       1.228474     -2.218985      0.078563
  C       2.435244     -0.921301      0.398734
  C       3.254405     -0.464178     -0.637217
  C       4.222382      0.517168     -0.396750
  C       4.346588      1.058574      0.884275
  Cl      5.538253      2.302276      1.188880
  C       3.519204      0.623588      1.926468
  C       2.574874     -0.372180      1.682490
  C      -0.519115     -0.481252     -1.179556
  O       0.405573     -0.563479     -2.157810
  C       0.198435      0.131644     -3.366914
  C      -1.673928      0.306137     -1.289541
  H      -3.264089      2.617691     -1.595410
  H      -4.176295      1.211971     -2.252048
  H      -4.980540      2.365081     -1.138564
  H      -3.006358     -0.236215      1.807420
  H      -1.243779     -2.336228      4.122937
  H      -1.866377     -0.701838      3.713435
  H      -2.688723     -2.167809      3.073443
  H       3.136249     -0.877506     -1.640261
  H       4.867117      0.866600     -1.203528
  H       3.627356      1.047977      2.924746
  H       1.936132     -0.727098      2.491571
  H       1.062238     -0.099459     -4.007540
  H      -0.723553     -0.199115     -3.882053
  H       0.151833      1.225727     -3.212344
  H      -1.873628      0.867821     -2.203630
35
Coordinates from ORCA-job file E -1663.296213238714
  C      -4.111400      1.809909     -1.367575
  O      -3.748620      1.080445     -0.216953
  C      -2.588359      0.379229     -0.212071
  C      -2.303007     -0.303561      0.978841
  C      -1.126597     -1.052409      1.081062
  O      -0.775666     -1.708385      2.213043
  C      -1.658128     -1.708856      3.313763
  C      -0.234457     -1.142427     -0.014322
  S       1.223266     -2.167647      0.058748
  C       2.457258     -0.906898      0.404122
  C       3.339573     -0.499019     -0.602550
  C       4.326423      0.454031     -0.335764
  C       4.415914      1.005274      0.944365
  Cl      5.647325      2.200042      1.286384
  C       3.534317      0.615690      1.958229
  C       2.562182     -0.346022      1.685447
  C      -0.534038     -0.429676     -1.192548
  O       0.377930     -0.506909     -2.186010
  C       0.137456      0.153402     -3.406572
  C      -1.708778      0.332925     -1.300357
  H      -3.369225      2.592943     -1.609305
  H      -4.236267      1.154033     -2.248639
  H      -5.074113      2.290126     -1.143167
  H      -3.013064     -0.216876      1.798967
  H      -1.181138     -2.321160      4.091637
  H      -1.825227     -0.690069      3.708691
  H      -2.635531     -2.153929      3.054777
  H       3.243389     -0.928497     -1.601155
  H       5.020385      0.773883     -1.114625
  H       3.620524      1.056873      2.952347
  H       1.867126     -0.664673      2.463969
  H       0.991630     -0.078240     -4.058022
  H      -0.788715     -0.203658     -3.893343
  H       0.074424      1.249440     -3.277619
  H      -1.926691      0.880766     -2.213995
35
Coordinates from ORCA-job file E -1663.296643983043
  C      -4.098021      1.825858     -1.315163
  O      -3.760005      1.058735     -0.182328
  C      -2.596740      0.362670     -0.173682
  C      -2.337287     -0.359405      0.999466
  C      -1.160353     -1.106842      1.104156
  O      -0.826823     -1.794584      2.221727
  C      -1.729707     -1.834007      3.304421
  C      -0.243551     -1.158947      0.028636
  S       1.218103     -2.174462      0.105045
  C       2.456302     -0.902307      0.372862
  C       3.457792     -0.691086     -0.581051
  C       4.446785      0.273124     -0.366963
  C       4.415614      1.035203      0.802691
  Cl      5.647326      2.247071      1.077856
  C       3.414157      0.843488      1.760566
  C       2.442998     -0.132986      1.545874
  C      -0.516973     -0.407888     -1.130793
  O       0.418542     -0.454032     -2.103949
  C       0.212368      0.247962     -3.306685
  C      -1.691606      0.355566     -1.241836
  H      -3.353026      2.618293     -1.511981
  H      -4.198721      1.199999     -2.220518
  H      -5.067292      2.295288     -1.098053
  H      -3.067875     -0.299147      1.803238
  H      -1.265815     -2.469881      4.070636
  H      -1.907648     -0.829340      3.728912
  H      -2.700192     -2.272086      3.011182
  H       3.451489     -1.281970     -1.498856
  H       5.233421      0.443184     -1.104143
  H       3.409187      1.448873      2.668601
  H       1.656901     -0.304388      2.284022
  H       1.082092      0.035480     -3.943262
  H      -0.702074     -0.088206     -3.828366
  H       0.149793      1.338914     -3.141634
  H      -1.889061      0.931955     -2.140826
35
Coordinates from ORCA-job file E -1663.297016213237
  C      -4.067317      1.854854     -1.257980
  O      -3.758885      1.046040     -0.146823
  C      -2.598528      0.345478     -0.137380
  C      -2.368111     -0.417313      1.015108
  C      -1.194549     -1.169178      1.120382
  O      -0.877419     -1.892919      2.216679
  C      -1.786560     -1.954106      3.291470
  C      -0.253375     -1.186722      0.068028
  S       1.212450     -2.188377      0.164824
  C       2.446118     -0.903784      0.351770
  C       3.549457     -0.866462     -0.507970
  C       4.532418      0.114580     -0.354883
  C       4.390506      1.072212      0.651029
  Cl      5.606683      2.316208      0.838388
  C       3.288975      1.053269      1.513184
  C       2.326091      0.056323      1.367305
  C      -0.503019     -0.405039     -1.076140
  O       0.449337     -0.431760     -2.033403
  C       0.292010      0.338296     -3.200812
  C      -1.671299      0.368780     -1.186350
  H      -3.313447      2.648445     -1.410231
  H      -4.151102      1.262410     -2.187032
  H      -5.038094      2.322488     -1.045562
  H      -3.117247     -0.382793      1.802742
  H      -1.328528     -2.606629      4.046656
  H      -1.965415     -0.958598      3.735886
  H      -2.756198     -2.383631      2.982931
  H       3.627765     -1.605480     -1.308394
  H       5.396693      0.151882     -1.020693
  H       3.202140      1.806884      2.298242
  H       1.469897      0.010434      2.044369
  H       1.178144      0.146763     -3.820386
  H      -0.610531      0.047385     -3.767791
  H       0.240195      1.418964     -2.976463
  H      -1.849155      0.971198     -2.070899
35
Coordinates from ORCA-job file E -1663.297457495190
  C      -4.051660      1.860422     -1.215348
  O      -3.776696      1.015349     -0.122722
  C      -2.610416      0.325189     -0.095096
  C      -2.416125     -0.477685      1.036582
  C      -1.239417     -1.221846      1.159076
  O      -0.954400     -1.986292      2.234998
  C      -1.899093     -2.096401      3.274045
  C      -0.259536     -1.191860      0.143812
  S       1.211364     -2.178615      0.265030
  C       2.446316     -0.888545      0.335871
  C       3.625029     -1.017385     -0.406922
  C       4.611807     -0.030535     -0.345563
  C       4.399648      1.099540      0.445480
  Cl      5.618515      2.353974      0.507568
  C       3.223894      1.245896      1.189716
  C       2.256393      0.244508      1.141144
  C      -0.477935     -0.377885     -0.984698
  O       0.504628     -0.373102     -1.910165
  C       0.396096      0.451297     -3.045601
  C      -1.646656      0.392335     -1.108873
  H      -3.299899      2.664705     -1.312312
  H      -4.096076      1.300784     -2.167230
  H      -5.033657      2.312745     -1.022462
  H      -3.195587     -0.480616      1.795050
  H      -1.460427     -2.772560      4.019761
  H      -2.103867     -1.120175      3.749100
  H      -2.853432     -2.522522      2.916241
  H       3.760712     -1.890444     -1.049468
  H       5.533524     -0.122572     -0.923131
  H       3.082288      2.133182      1.809840
  H       1.343863      0.330463      1.735854
  H       1.307152      0.286822     -3.635900
  H      -0.482631      0.190493     -3.662416
  H       0.335649      1.520013     -2.771985
  H      -1.799267      1.021422     -1.979478
35
Coordinates from ORCA-job file E -1663.297627032168
  C      -4.118894      1.854964     -1.159398
  O      -3.832720      0.989339     -0.086177
  C      -2.660705      0.305394     -0.076119
  C      -2.452289     -0.511556      1.042408
  C      -1.262737     -1.237490      1.154939
  O      -0.992180     -2.049417      2.199337
  C      -1.952919     -2.206619      3.218248
  C      -0.268647     -1.153749      0.151583
  S       1.231833     -2.087555      0.324350
  C       2.491879     -0.822800      0.364338
  C       3.740134     -1.114492     -0.204526
  C       4.771366     -0.175375     -0.178655
  C       4.547107      1.075786      0.398427
  Cl      5.824975      2.273807      0.402372
  C       3.309112      1.383245      0.967010
  C       2.291133      0.430722      0.960507
  C      -0.518272     -0.353364     -0.981101
  O       0.461460     -0.310396     -1.907952
  C       0.337330      0.531742     -3.028587
  C      -1.700819      0.396921     -1.092448
  H      -3.374232      2.668055     -1.240572
  H      -4.161693      1.315693     -2.123352
  H      -5.104420      2.295196     -0.954387
  H      -3.236430     -0.546371      1.795459
  H      -1.526322     -2.912818      3.943769
  H      -2.168364     -1.251414      3.730539
  H      -2.899713     -2.620478      2.826570
  H       3.900341     -2.084571     -0.682768
  H       5.742459     -0.400573     -0.622559
  H       3.153392      2.363519      1.420306
  H       1.323690      0.670819      1.399385
  H       1.258259      0.405384     -3.613436
  H      -0.529133      0.254362     -3.655964
  H       0.241548      1.592296     -2.734178
  H      -1.865426      1.031892     -1.957567
35
Coordinates from ORCA-job file E -1663.297901915892
  C      -4.146901      1.805020     -1.161486
  O      -3.884324      0.922197     -0.095955
  C      -2.688589      0.283424     -0.040280
  C      -2.513005     -0.568199      1.058228
  C      -1.309128     -1.263280      1.207917
  O      -1.063029     -2.098802      2.238525
  C      -2.068584     -2.323549      3.199775
  C      -0.271389     -1.118304      0.256818
  S       1.229232     -2.040491      0.456612
  C       2.496212     -0.793498      0.350073
  C       3.771200     -1.197014     -0.073251
  C       4.820821     -0.281717     -0.147925
  C       4.593073      1.055397      0.180861
  Cl      5.898215      2.217763      0.057325
  C       3.328037      1.474408      0.600447
  C       2.288560      0.550631      0.693344
  C      -0.484241     -0.277315     -0.854899
  O       0.532443     -0.190726     -1.736114
  C       0.445176      0.688084     -2.832562
  C      -1.681014      0.441614     -1.000786
  H      -3.430996      2.647479     -1.183116
  H      -4.118643      1.290743     -2.139759
  H      -5.158126      2.202684     -0.998459
  H      -3.333818     -0.656434      1.767002
  H      -1.657166     -3.045110      3.918849
  H      -2.339077     -1.396239      3.737027
  H      -2.981771     -2.748648      2.744520
  H       3.941371     -2.237181     -0.363542
  H       5.811526     -0.597329     -0.478668
  H       3.166487      2.521857      0.859963
  H       1.305239      0.881697      1.026230
  H       1.392248      0.592750     -3.380408
  H      -0.390097      0.423124     -3.506171
  H       0.322964      1.736418     -2.505731
  H      -1.822804      1.098645     -1.854605
35
Coordinates from ORCA-job file E -1663.298094421129
  C      -4.162770      1.811853     -1.167075
  O      -3.864838      0.958133     -0.086871
  C      -2.675806      0.306965     -0.062002
  C      -2.464478     -0.518929      1.050040
  C      -1.264600     -1.227195      1.167641
  O      -0.988466     -2.034762      2.215768
  C      -1.959722     -2.222197      3.220407
  C      -0.264653     -1.118411      0.172331
  S       1.228663     -2.070515      0.303121
  C       2.491923     -0.811815      0.317873
  C       3.758393     -1.152940     -0.176796
  C       4.809352     -0.235452     -0.136064
  C       4.587128      1.041093      0.383764
  Cl      5.896155      2.203097      0.425645
  C       3.326389      1.400205      0.869486
  C       2.287496      0.471595      0.846015
  C      -0.509316     -0.296237     -0.944915
  O       0.476356     -0.239504     -1.863434
  C       0.344553      0.593816     -2.990361
  C      -1.704497      0.431841     -1.063164
  H      -3.439612      2.644485     -1.243929
  H      -4.181924      1.267303     -2.128830
  H      -5.161817      2.226198     -0.974043
  H      -3.255184     -0.575357      1.795149
  H      -1.530310     -2.933023      3.939352
  H      -2.195223     -1.278754      3.745330
  H      -2.894433     -2.644302      2.809986
  H       3.920576     -2.145122     -0.605802
  H       5.796514     -0.501366     -0.518096
  H       3.170272      2.400197      1.278185
  H       1.307519      0.745205      1.240432
  H       1.263665      0.467085     -3.577938
  H      -0.522884      0.308313     -3.612912
  H       0.246940      1.656524     -2.703691
  H      -1.871260      1.072074     -1.924799
35
Coordinates from ORCA-job file E -1663.298183669105
  C      -4.178591      1.800321     -1.163303
  O      -3.878836      0.944711     -0.085149
  C      -2.685630      0.301801     -0.058558
  C      -2.474070     -0.529333      1.049405
  C      -1.270484     -1.230999      1.167898
  O      -0.994554     -2.048477      2.206524
  C      -1.960765     -2.237212      3.215174
  C      -0.267332     -1.110948      0.177594
  S       1.225672     -2.060276      0.311345
  C       2.492435     -0.808391      0.319160
  C       3.768775     -1.179099     -0.129139
  C       4.825787     -0.269058     -0.101413
  C       4.603259      1.029271      0.361739
  Cl      5.920606      2.182047      0.384324
  C       3.334762      1.416421      0.803104
  C       2.287001      0.497038      0.788340
  C      -0.512648     -0.284826     -0.936779
  O       0.476220     -0.218309     -1.851443
  C       0.351633      0.633166     -2.965813
  C      -1.710723      0.438360     -1.054691
  H      -3.461594      2.638637     -1.234349
  H      -4.189845      1.259477     -2.127196
  H      -5.181423      2.206264     -0.972602
  H      -3.267755     -0.597905      1.790170
  H      -1.527544     -2.949275      3.930469
  H      -2.193085     -1.294656      3.742873
  H      -2.897913     -2.658745      2.809541
  H       3.934719     -2.188617     -0.513979
  H       5.818896     -0.559010     -0.449151
  H       3.176254      2.433770      1.165784
  H       1.300047      0.797944      1.144053
  H       1.277103      0.519918     -3.545918
  H      -0.508105      0.354637     -3.601800
  H       0.246063      1.690371     -2.662491
  H      -1.878233      1.081082     -1.913920
35
Coordinates from ORCA-job file E -1663.298217977254
  C      -4.221886      1.780322     -1.144183
  O      -3.906442      0.923188     -0.071450
  C      -2.705638      0.294955     -0.052775
  C      -2.481771     -0.543322      1.047430
  C      -1.270778     -1.233727      1.157055
  O      -0.985074     -2.059080      2.185907
  C      -1.939923     -2.254660      3.204168
  C      -0.271282     -1.094114      0.165258
  S       1.223646     -2.040875      0.278949
  C       2.498984     -0.801663      0.298988
  C       3.797093     -1.226781     -0.025943
  C       4.870371     -0.337353      0.015021
  C       4.646607      0.995768      0.366617
  Cl      5.986841      2.120973      0.407169
  C       3.358491      1.436187      0.681857
  C       2.291711      0.538311      0.654206
  C      -0.526812     -0.257262     -0.939012
  O       0.462759     -0.166325     -1.850693
  C       0.330041      0.701093     -2.952064
  C      -1.733067      0.453408     -1.048157
  H      -3.518635      2.630302     -1.212203
  H      -4.227074      1.244630     -2.110921
  H      -5.230551      2.169213     -0.948666
  H      -3.271986     -0.628488      1.790143
  H      -1.493865     -2.963905      3.914440
  H      -2.172749     -1.313621      3.734252
  H      -2.878187     -2.683213      2.808712
  H       3.969784     -2.264534     -0.322983
  H       5.878303     -0.672009     -0.236695
  H       3.195715      2.480358      0.955590
  H       1.289281      0.886768      0.908717
  H       1.259677      0.610964     -3.529570
  H      -0.522304      0.419758     -3.596607
  H       0.206920      1.751482     -2.632443
  H      -1.908100      1.103352     -1.900312
35
Coordinates from ORCA-job file E -1663.298281519024
  C      -4.201667      1.793048     -1.145823
  O      -3.891385      0.933424     -0.073628
  C      -2.694843      0.297721     -0.056533
  C      -2.474664     -0.541320      1.043626
  C      -1.268041     -1.239517      1.150921
  O      -0.982426     -2.064172      2.179311
  C      -1.926286     -2.239010      3.210959
  C      -0.271315     -1.109653      0.156117
  S       1.219710     -2.061847      0.265343
  C       2.488576     -0.816919      0.306900
  C       3.786349     -1.220365     -0.046099
  C       4.848590     -0.317903     -0.008706
  C       4.613963      1.005860      0.370678
  Cl      5.939795      2.147963      0.403997
  C       3.327059      1.423601      0.719382
  C       2.270757      0.512988      0.691283
  C      -0.522733     -0.271268     -0.947961
  O       0.464120     -0.190944     -1.864116
  C       0.339442      0.685807     -2.959082
  C      -1.723968      0.448153     -1.054769
  H      -3.493447      2.638894     -1.213298
  H      -4.209496      1.257973     -2.112818
  H      -5.208016      2.187465     -0.950075
  H      -3.262840     -0.621764      1.788962
  H      -1.475570     -2.939963      3.926325
  H      -2.147934     -1.288787      3.729165
  H      -2.871701     -2.668332      2.833446
  H       3.967068     -2.250215     -0.364691
  H       5.855909     -0.635242     -0.284345
  H       3.155489      2.460203      1.015865
  H       1.268702      0.842895      0.971673
  H       1.269257      0.593460     -3.535789
  H      -0.513580      0.415906     -3.607478
  H       0.222898      1.734452     -2.631585
  H      -1.897674      1.097509     -1.907355
35
Coordinates from ORCA-job file E -1663.298301527868
  C      -4.203141      1.798479     -1.139088
  O      -3.888525      0.939061     -0.067950
  C      -2.693263      0.300672     -0.057121
  C      -2.468104     -0.536591      1.043440
  C      -1.261993     -1.236480      1.145199
  O      -0.972551     -2.059455      2.174265
  C      -1.913747     -2.233536      3.208741
  C      -0.270940     -1.110523      0.143980
  S       1.220780     -2.062696      0.245088
  C       2.490842     -0.818427      0.302063
  C       3.791614     -1.219852     -0.042080
  C       4.853405     -0.317534      0.009515
  C       4.615293      1.004109      0.394159
  Cl      5.940632      2.146551      0.444579
  C       3.325750      1.419839      0.734548
  C       2.270087      0.509018      0.693676
  C      -0.527680     -0.273945     -0.960369
  O       0.454555     -0.194979     -1.881389
  C       0.322007      0.676027     -2.979903
  C      -1.728303      0.447357     -1.061700
  H      -3.493648      2.643000     -1.210730
  H      -4.216857      1.262723     -2.105655
  H      -5.207760      2.194841     -0.938304
  H      -3.252311     -0.613302      1.793407
  H      -1.461287     -2.933713      3.923793
  H      -2.134557     -1.282808      3.726416
  H      -2.859966     -2.663233      2.833609
  H       3.974615     -2.248352     -0.364010
  H       5.863199     -0.632728     -0.259284
  H       3.152086      2.454451      1.036474
  H       1.265879      0.835953      0.969058
  H       1.247303      0.580396     -3.563370
  H      -0.536213      0.402934     -3.620186
  H       0.208432      1.726493     -2.657071
  H      -1.905534      1.096349     -1.913999
35
Coordinates from ORCA-job file E -1663.298319013747
  C      -4.204546      1.806008     -1.127188
  O      -3.885696      0.944119     -0.059226
  C      -2.691857      0.302968     -0.056141
  C      -2.461781     -0.535174      1.042704
  C      -1.256414     -1.237410      1.136958
  O      -0.962181     -2.060546      2.164689
  C      -1.897472     -2.232472      3.205054
  C      -0.271036     -1.112556      0.129991
  S       1.221035     -2.064702      0.220369
  C       2.491682     -0.821528      0.295393
  C       3.798768     -1.225931     -0.020470
  C       4.859568     -0.323478      0.044429
  C       4.614626      1.001270      0.414155
  Cl      5.939254      2.144156      0.480374
  C       3.319422      1.419688      0.727497
  C       2.264375      0.508767      0.673694
  C      -0.532784     -0.274662     -0.972400
  O       0.444590     -0.195557     -1.898370
  C       0.305311      0.673460     -2.997577
  C      -1.732859      0.448503     -1.066665
  H      -3.493688      2.649242     -1.200874
  H      -4.224149      1.271953     -2.094574
  H      -5.207332      2.203878     -0.920386
  H      -3.241831     -0.610235      1.797165
  H      -1.441466     -2.931750      3.918698
  H      -2.115054     -1.280774      3.722279
  H      -2.846007     -2.662033      2.835642
  H       3.987540     -2.257420     -0.329583
  H       5.874369     -0.640719     -0.202169
  H       3.140612      2.456319      1.019277
  H       1.255325      0.837160      0.928564
  H       1.226431      0.576164     -3.587331
  H      -0.557595      0.399739     -3.631300
  H       0.194779      1.724613     -2.675866
  H      -1.913839      1.099041     -1.917011
35
Coordinates from ORCA-job file E -1663.298323674148
  C      -4.203353      1.809878     -1.122398
  O      -3.883798      0.946395     -0.055939
  C      -2.690629      0.304011     -0.055327
  C      -2.459524     -0.534801      1.042758
  C      -1.254705     -1.238292      1.134479
  O      -0.959332     -2.062508      2.160847
  C      -1.892399     -2.233685      3.203288
  C      -0.270954     -1.113766      0.126011
  S       1.220865     -2.066125      0.213844
  C       2.491279     -0.822975      0.293892
  C       3.800595     -1.228036     -0.011517
  C       4.860359     -0.324607      0.056054
  C       4.612318      1.001501      0.418715
  Cl      5.935821      2.145581      0.488224
  C       3.314988      1.420508      0.722353
  C       2.260795      0.508835      0.665223
  C      -0.533951     -0.275493     -0.975860
  O       0.441924     -0.196862     -1.903360
  C       0.301383      0.671992     -3.002534
  C      -1.733460      0.448943     -1.067685
  H      -3.491294      2.652040     -1.196476
  H      -4.225555      1.276928     -2.090320
  H      -5.205122      2.209036     -0.913274
  H      -3.238574     -0.609426      1.798270
  H      -1.436047     -2.934598      3.915064
  H      -2.106902     -1.282160      3.722100
  H      -2.842690     -2.660848      2.835650
  H       3.992009     -2.260903     -0.314333
  H       5.877025     -0.642172     -0.182392
  H       3.133895      2.458232      1.008860
  H       1.249886      0.837555      0.912269
  H       1.221060      0.573276     -3.594260
  H      -0.563301      0.399290     -3.634206
  H       0.193008      1.723387     -2.680875
  H      -1.915521      1.099968     -1.917346
35
Coordinates from ORCA-job file E -1663.298324115410
  C      -4.201937      1.811924     -1.120601
  O      -3.882837      0.947297     -0.054952
  C      -2.690008      0.304294     -0.054922
  C      -2.458996     -0.534785      1.042982
  C      -1.254568     -1.239011      1.134050
  O      -0.959178     -2.063802      2.159837
  C      -1.891994     -2.235250      3.202403
  C      -0.270859     -1.114313      0.125600
  S       1.220900     -2.066616      0.213814
  C       2.491049     -0.823143      0.294043
  C       3.800932     -1.228177     -0.008633
  C       4.860186     -0.324078      0.058662
  C       4.611019      1.002490      0.418613
  Cl      5.933804      2.147379      0.487796
  C       3.313023      1.421500      0.719840
  C       2.259359      0.509292      0.662652
  C      -0.533912     -0.276074     -0.976276
  O       0.441670     -0.197959     -1.904103
  C       0.301054      0.670618     -3.003503
  C      -1.733174      0.448857     -1.067631
  H      -3.488894      2.653243     -1.194525
  H      -4.225411      1.279750     -2.088918
  H      -5.203087      2.212136     -0.910578
  H      -3.237973     -0.609079      1.798584
  H      -1.436210     -2.937794      3.912921
  H      -2.104950     -1.284236      3.722801
  H      -2.843059     -2.660544      2.834652
  H       3.993290     -2.261536     -0.309118
  H       5.877382     -0.641506     -0.177726
  H       3.131211      2.459706      1.004181
  H       1.247909      0.838060      0.907444
  H       1.220260      0.570882     -3.595771
  H      -0.564292      0.398487     -3.634468
  H       0.193809      1.722220     -2.682138
  H      -1.915422      1.099871     -1.917213
