9
Coordinates from ORCA-job file E -230.107717409867
  C       0.687100      0.692600      0.167800
  C      -0.679200      0.635900      0.336300
  C      -1.062500     -0.617100     -0.093500
  O      -0.007700     -1.286200     -0.498600
  C       1.055600     -0.529200     -0.354800
  H       1.337700      1.525500      0.398300
  H      -1.320200      1.415100      0.726200
  H      -2.072600     -1.004100     -0.102000
  H       2.061600     -0.832500     -0.612100
9
Coordinates from ORCA-job file E -230.118269894194
  C       0.712441      0.713106      0.172020
  C      -0.704331      0.654173      0.346992
  C      -1.082904     -0.582106     -0.077291
  O      -0.007700     -1.288297     -0.499242
  C       1.076408     -0.492566     -0.343476
  H       1.371355      1.540331      0.399166
  H      -1.353640      1.427062      0.735682
  H      -2.042247     -1.070364     -0.131979
  H       2.030418     -0.901339     -0.634272
9
Coordinates from ORCA-job file E -230.118564622604
  C       0.717217      0.717272      0.172965
  C      -0.709040      0.657923      0.349167
  C      -1.088366     -0.577120     -0.074699
  O      -0.007769     -1.287987     -0.499281
  C       1.081940     -0.487228     -0.342069
  H       1.375161      1.545289      0.400436
  H      -1.357406      1.431637      0.738008
  H      -2.040092     -1.084319     -0.137596
  H       2.028156     -0.915468     -0.639331
9
Coordinates from ORCA-job file E -230.118569165426
  C       0.717991      0.717405      0.172868
  C      -0.709819      0.657975      0.349292
  C      -1.089299     -0.576855     -0.074465
  O      -0.007761     -1.288464     -0.499430
  C       1.082880     -0.486852     -0.342102
  H       1.375566      1.545658      0.400553
  H      -1.357800      1.431978      0.738205
  H      -2.040651     -1.084862     -0.137734
  H       2.028694     -0.915983     -0.639587
9
Coordinates from ORCA-job file E -230.118569204616
  C       0.718049      0.717382      0.172871
  C      -0.709875      0.657954      0.349291
  C      -1.089331     -0.576870     -0.074468
  O      -0.007766     -1.288548     -0.499477
  C       1.082913     -0.486874     -0.342097
  H       1.375600      1.545654      0.400545
  H      -1.357837      1.431976      0.738193
  H      -2.040685     -1.084783     -0.137687
  H       2.028733     -0.915891     -0.639572
