9
Coordinates from ORCA-job file
  C   0.71804885891657      0.71738196276798      0.17287134181050
  C   -0.70987496980810      0.65795432458570      0.34929111664830
  C   -1.08933093778609     -0.57687016660347     -0.07446777758549
  O   -0.00776583450091     -1.28854833125395     -0.49947697353251
  C   1.08291256116072     -0.48687385742712     -0.34209690524340
  H   1.37559970838166      1.54565363393617      0.40054493569449
  H   -1.35783655347189      1.43197591420403      0.73819328907758
  H   -2.04068548477290     -1.08478291075032     -0.13768714709606
  H   2.02873265188094     -0.91589056945900     -0.63957187977341
