45
Coordinates from ORCA-job file
  C   5.50244365873284     -0.16632765098956      0.48233174650097
  O   4.45033982536150     -0.76748235051960     -0.26118006750873
  C   3.16274524793677     -0.39905157122755     -0.00264623786030
  C   2.80333638025586      0.52436189765050      0.97951819203477
  C   1.44362908620842      0.82431219326356      1.15811422513105
  O   1.00828229161098      1.70784789178838      2.10152398198699
  C   1.95668223756910      2.39407902966771      2.90695393849965
  C   0.45481340802670      0.20932612041625      0.38097214900345
  S   -1.31033574812470      0.84245158794297      0.53512624077485
  C   -2.14252650088051     -0.76188929915770      0.81597473192821
  C   -3.39355936996675     -0.97588507431171      0.24890189704781
  C   -4.08355708781501     -2.15357734319240      0.53696304912739
  C   -3.53281261060952     -3.10034559386029      1.39936527265027
  C   -2.28409549905854     -2.86604267905733      1.97622428688669
  C   -1.58344245586266     -1.69683528451148      1.68573075258800
  C   -2.01861546035646      1.56555451875874     -0.79935252366061
  C   -1.93257797955627      1.26936461945994     -2.29286970644434
  C   -2.36676305665761      2.74893483135844     -2.51871682451311
  C   -2.00640712228359      3.07970676007875     -1.03678409679379
  C   0.85342270420639     -0.70671703069517     -0.61051186027163
  O   -0.14708335501683     -1.26432922641052     -1.34000859208447
  C   0.17536024790197     -2.20088586354321     -2.36085129112271
  C   2.19783826785275     -1.02039349538582     -0.80023330762662
  H   5.41736523320586     -0.39176815836139      1.55111348107741
  H   6.42342037390156     -0.60057810055818      0.09606538529417
  H   5.52494925206803      0.91921726405379      0.33662959778621
  H   3.55294041246281      0.99634729182098      1.59441737152159
  H   2.54048601636534      1.69892072154868      3.52042317467684
  H   1.37275011947519      3.04341044663729      3.55757955174769
  H   2.63238765385788      3.00493475546628      2.29844320402796
  H   -3.80555162805115     -0.21290168842682     -0.40168330548467
  H   -5.05489768492322     -2.32827985168873      0.08647099527665
  H   -4.07351448774534     -4.01286412777435      1.62558152103167
  H   -1.85221449199106     -3.59470527063079      2.65399389599489
  H   -0.60791930957606     -1.52111364846971      2.12428317645291
  H   -0.91346694908970      1.08545479657284     -2.66266817601627
  H   -2.58450131834006      0.49061580580935     -2.70350078540986
  H   -3.43901049285996      2.83708547072783     -2.70464492371042
  H   -1.82444295486635      3.30428076781199     -3.28713890990073
  H   -1.02249689442669      3.56536858907836     -0.96649642777976
  H   -2.72769576426979      3.68478417153897     -0.47772780701740
  H   0.80377525096023     -1.74634237561027     -3.13420963279621
  H   0.67873996687707     -3.08135667124862     -1.94800544824123
  H   -0.77679553584373     -2.49929696611193     -2.79630834551951
  H   2.52887612333437     -1.72749020970851     -1.54706354928572
