45
Coordinates from ORCA-job file E -1360.517670853865
  C       5.701500     -0.533200      0.252900
  O       4.623100     -1.005500     -0.548000
  C       3.282600     -0.625200     -0.380900
  C       2.874200      0.278800      0.615000
  C       1.518400      0.631000      0.748900
  O       1.079100      1.531000      1.734500
  C       1.926300      2.172100      2.682100
  C       0.570400      0.069000     -0.122200
  S      -1.125900      0.510800      0.052600
  C      -2.098100     -0.707700      0.856900
  C      -2.512800     -1.856900      0.170700
  C      -3.288700     -2.820100      0.823500
  C      -3.653900     -2.636400      2.160700
  C      -3.245600     -1.487600      2.845400
  C      -2.470000     -0.523200      2.194300
  C      -1.870600      1.196000     -1.422700
  C      -1.190200      2.495400     -1.839200
  C      -2.455000      3.269800     -1.504300
  C      -3.140000      1.975100     -1.096600
  C       0.969900     -0.828300     -1.127700
  O      -0.001200     -1.351600     -1.996100
  C       0.264100     -2.272500     -3.048600
  C       2.329200     -1.171000     -1.243800
  H       5.541300     -0.816400      1.314700
  H       6.645200     -0.997400     -0.099700
  H       5.791800      0.569700      0.160100
  H       3.607700      0.705300      1.282600
  H       2.433100      1.413900      3.315700
  H       1.310900      2.825100      3.334100
  H       2.678200      2.799900      2.158900
  H      -2.247300     -2.003600     -0.867200
  H      -3.609100     -3.707000      0.292400
  H      -4.254800     -3.382100      2.665000
  H      -3.530200     -1.344600      3.879800
  H      -2.157100      0.363800      2.730900
  H      -0.326900      2.793400     -1.203700
  H      -0.965700      2.505200     -2.927300
  H      -2.920700      3.738400     -2.398800
  H      -2.314000      3.964500     -0.647500
  H      -3.428800      1.965300     -0.022100
  H      -3.970500      1.703700     -1.782900
  H       0.961800     -1.820500     -3.784700
  H       0.694400     -3.209500     -2.636300
  H      -0.687400     -2.515800     -3.564000
  H       2.661600     -1.861200     -2.007300
45
Coordinates from ORCA-job file E -1360.543267868094
  C       5.603755     -0.518187      0.260724
  O       4.558654     -1.025936     -0.552835
  C       3.256147     -0.631730     -0.369996
  C       2.877633      0.284866      0.617124
  C       1.532278      0.644910      0.755089
  O       1.122507      1.540310      1.709353
  C       2.048226      2.142194      2.599070
  C       0.560639      0.089777     -0.093037
  S      -1.132833      0.577080      0.109846
  C      -2.102793     -0.697834      0.860355
  C      -2.495065     -1.828404      0.134440
  C      -3.264381     -2.816408      0.750013
  C      -3.644785     -2.674196      2.086088
  C      -3.258726     -1.541695      2.806286
  C      -2.488652     -0.551958      2.194359
  C      -1.884557      1.209358     -1.392617
  C      -1.195929      2.515450     -1.843097
  C      -2.488938      3.295743     -1.522999
  C      -3.175569      1.990660     -1.066021
  C       0.958114     -0.827237     -1.084867
  O      -0.005871     -1.345497     -1.902236
  C       0.311241     -2.277183     -2.922704
  C       2.302120     -1.186432     -1.217674
  H       5.438890     -0.780406      1.316823
  H       6.536939     -0.979129     -0.077079
  H       5.686751      0.573909      0.153372
  H       3.621867      0.714551      1.272387
  H       2.552433      1.380439      3.213120
  H       1.482731      2.809775      3.256372
  H       2.793579      2.734121      2.046565
  H      -2.213077     -1.932195     -0.905344
  H      -3.569140     -3.692583      0.189329
  H      -4.243214     -3.441561      2.563775
  H      -3.557073     -1.429460      3.841842
  H      -2.189349      0.326237      2.754168
  H      -0.335191      2.840895     -1.233174
  H      -0.957148      2.500650     -2.917462
  H      -2.955975      3.743963     -2.411327
  H      -2.357124      4.013192     -0.702807
  H      -3.471512      2.009121     -0.002290
  H      -4.008240      1.691762     -1.719766
  H       0.999421     -1.831803     -3.656229
  H       0.754233     -3.190022     -2.495733
  H      -0.624180     -2.537326     -3.427406
  H       2.621464     -1.891879     -1.973703
45
Coordinates from ORCA-job file E -1360.554201951856
  C       5.558975     -0.529699      0.247873
  O       4.513696     -1.051458     -0.557344
  C       3.239138     -0.634134     -0.349700
  C       2.890804      0.297438      0.631351
  C       1.550688      0.671189      0.779763
  O       1.157151      1.571031      1.711240
  C       2.122943      2.160994      2.566595
  C       0.554982      0.119660     -0.047076
  S      -1.128120      0.661215      0.195086
  C      -2.094186     -0.682722      0.870742
  C      -2.463025     -1.783512      0.093045
  C      -3.225441     -2.802417      0.660873
  C      -3.622099     -2.717408      1.996560
  C      -3.259965     -1.610628      2.764379
  C      -2.495168     -0.589339      2.202319
  C      -1.877178      1.201459     -1.348272
  C      -1.189288      2.504549     -1.850366
  C      -2.506760      3.287564     -1.570628
  C      -3.184987      1.988834     -1.040904
  C       0.937946     -0.818920     -1.031928
  O      -0.039634     -1.327290     -1.803327
  C       0.277176     -2.268503     -2.815925
  C       2.272660     -1.194482     -1.180969
  H       5.405467     -0.773060      1.305361
  H       6.476260     -1.004066     -0.096926
  H       5.649858      0.555705      0.127244
  H       3.645898      0.726874      1.269491
  H       2.627898      1.405525      3.179364
  H       1.574682      2.839573      3.218061
  H       2.864219      2.732885      1.997167
  H      -2.165744     -1.828846     -0.946367
  H      -3.513928     -3.659441      0.061866
  H      -4.217066     -3.510197      2.437233
  H      -3.573077     -1.540717      3.800042
  H      -2.210272      0.273437      2.793832
  H      -0.334562      2.875149     -1.267727
  H      -0.928745      2.446491     -2.912007
  H      -2.976143      3.698465     -2.468047
  H      -2.389795      4.048533     -0.797246
  H      -3.492397      2.058526      0.012316
  H      -4.020411      1.646384     -1.658343
  H       0.948868     -1.833705     -3.563700
  H       0.727704     -3.173890     -2.393187
  H      -0.667021     -2.525017     -3.293583
  H       2.578299     -1.912125     -1.928132
45
Coordinates from ORCA-job file E -1360.559213045544
  C       5.558870     -0.527367      0.218259
  O       4.494093     -1.050362     -0.564824
  C       3.228600     -0.622358     -0.329293
  C       2.899064      0.312862      0.652535
  C       1.559796      0.688783      0.816104
  O       1.173091      1.594087      1.744494
  C       2.148940      2.195688      2.584586
  C       0.546507      0.137400      0.006122
  S      -1.124038      0.729482      0.290847
  C      -2.089031     -0.671361      0.893742
  C      -2.490223     -1.713631      0.057402
  C      -3.252878     -2.754722      0.582048
  C      -3.620168     -2.746257      1.928946
  C      -3.230559     -1.691729      2.752714
  C      -2.463338     -0.648320      2.235623
  C      -1.862572      1.164672     -1.292465
  C      -1.168354      2.442853     -1.868512
  C      -2.492318      3.243297     -1.649010
  C      -3.169407      1.982455     -1.021841
  C       0.916692     -0.810768     -0.981239
  O      -0.072998     -1.320998     -1.730992
  C       0.233308     -2.252025     -2.760009
  C       2.248950     -1.186558     -1.145919
  H       5.429461     -0.763644      1.279089
  H       6.460806     -1.012099     -0.148952
  H       5.654943      0.555470      0.091223
  H       3.662598      0.744545      1.277316
  H       2.664471      1.451402      3.199502
  H       1.596474      2.873959      3.231274
  H       2.880690      2.767499      2.005675
  H      -2.220792     -1.684503     -0.988663
  H      -3.567610     -3.569618     -0.061360
  H      -4.217057     -3.556711      2.333965
  H      -3.524804     -1.677275      3.796478
  H      -2.154914      0.177895      2.866789
  H      -0.314399      2.859423     -1.319445
  H      -0.887442      2.320770     -2.918414
  H      -2.962546      3.602580     -2.566490
  H      -2.380733      4.063440     -0.938853
  H      -3.483336      2.129576      0.020229
  H      -4.016865      1.597807     -1.594696
  H       0.883684     -1.806435     -3.518148
  H       0.699356     -3.157457     -2.358679
  H      -0.721999     -2.505200     -3.214885
  H       2.548289     -1.906649     -1.892172
45
Coordinates from ORCA-job file E -1360.561525000639
  C       5.571114     -0.468495      0.209385
  O       4.508199     -1.012717     -0.564805
  C       3.238226     -0.599744     -0.319346
  C       2.899795      0.330794      0.660720
  C       1.553955      0.683517      0.825392
  O       1.155452      1.587177      1.752987
  C       2.127519      2.211207      2.583843
  C       0.541383      0.117191      0.022043
  S      -1.128387      0.730588      0.333702
  C      -2.112414     -0.689720      0.906385
  C      -2.641079     -1.634456      0.030190
  C      -3.417673     -2.672077      0.540814
  C      -3.674310     -2.752985      1.911174
  C      -3.162035     -1.788029      2.775484
  C      -2.379236     -0.748266      2.272990
  C      -1.874503      1.132564     -1.258178
  C      -1.149998      2.371062     -1.894496
  C      -2.445951      3.221230     -1.694108
  C      -3.144845      2.015910     -0.986792
  C       0.924588     -0.830673     -0.964539
  O      -0.054207     -1.368813     -1.707721
  C       0.277965     -2.283059     -2.746119
  C       2.263025     -1.182090     -1.130265
  H       5.453763     -0.701333      1.272176
  H       6.475241     -0.943404     -0.165370
  H       5.649873      0.614909      0.076810
  H       3.657731      0.777616      1.282384
  H       2.660600      1.480500      3.199598
  H       1.562597      2.881474      3.228202
  H       2.844839      2.793164      1.997446
  H      -2.463646     -1.518229     -1.029163
  H      -3.833114     -3.414068     -0.133130
  H      -4.283941     -3.560625      2.302758
  H      -3.374538     -1.837567      3.838021
  H      -1.975604      0.012472      2.932621
  H      -0.272719      2.791126     -1.387016
  H      -0.876399      2.199659     -2.939979
  H      -2.925002      3.560236     -2.614844
  H      -2.299080      4.078939     -1.035543
  H      -3.435470      2.226751      0.051164
  H      -4.028030      1.634127     -1.506171
  H       0.911237     -1.811409     -3.502811
  H       0.773045     -3.176996     -2.354861
  H      -0.673114     -2.558336     -3.197090
  H       2.575449     -1.899219     -1.873845
45
Coordinates from ORCA-job file E -1360.563275870780
  C       5.572644     -0.413348      0.158812
  O       4.489839     -0.992846     -0.562040
  C       3.218413     -0.579879     -0.297863
  C       2.897529      0.381130      0.658088
  C       1.552329      0.726838      0.844850
  O       1.172252      1.663470      1.756451
  C       2.157960      2.329766      2.538384
  C       0.525378      0.126772      0.085388
  S      -1.141855      0.746287      0.410431
  C      -2.123596     -0.716331      0.898136
  C      -2.706816     -1.553043     -0.046619
  C      -3.486173     -2.622086      0.390201
  C      -3.688420     -2.839047      1.755573
  C      -3.118295     -1.978444      2.692097
  C      -2.333019     -0.907248      2.263345
  C      -1.863933      1.146143     -1.196061
  C      -1.100090      2.341948     -1.865886
  C      -2.364655      3.236796     -1.703035
  C      -3.096586      2.088206     -0.948375
  C       0.886637     -0.855088     -0.871789
  O      -0.113402     -1.445317     -1.555706
  C       0.188199     -2.395721     -2.571643
  C       2.224735     -1.199032     -1.058501
  H       5.486401     -0.606873      1.233668
  H       6.471117     -0.896125     -0.223842
  H       5.637446      0.665935     -0.017796
  H       3.667061      0.856282      1.245006
  H       2.716516      1.625908      3.164877
  H       1.602986      3.018147      3.174817
  H       2.852036      2.897368      1.909224
  H      -2.569092     -1.320208     -1.095993
  H      -3.946209     -3.283021     -0.336963
  H      -4.300705     -3.670658      2.087830
  H      -3.290110     -2.131723      3.751982
  H      -1.886590     -0.223771      2.977851
  H      -0.209739      2.753804     -1.371808
  H      -0.820391      2.130423     -2.904699
  H      -2.834747      3.559596     -2.636294
  H      -2.192229      4.121466     -1.083573
  H      -3.375463      2.349130      0.083184
  H      -4.003198      1.720567     -1.441892
  H       0.787821     -1.944380     -3.369058
  H       0.709223     -3.268831     -2.164446
  H      -0.776508     -2.699733     -2.975853
  H       2.525601     -1.943331     -1.780357
45
Coordinates from ORCA-job file E -1360.565046398062
  C       5.560817     -0.353230      0.133718
  O       4.476535     -0.970167     -0.551886
  C       3.203830     -0.567453     -0.279452
  C       2.885663      0.416452      0.655437
  C       1.539187      0.750684      0.853055
  O       1.159592      1.707419      1.744409
  C       2.146419      2.412047      2.489281
  C       0.512147      0.118828      0.123466
  S      -1.160967      0.720265      0.432437
  C      -2.141379     -0.758589      0.886720
  C      -2.821507     -1.487823     -0.079744
  C      -3.603466     -2.569229      0.320741
  C      -3.709888     -2.902652      1.673336
  C      -3.040782     -2.146347      2.635285
  C      -2.253852     -1.063152      2.242345
  C      -1.857923      1.163610     -1.177035
  C      -1.045761      2.321310     -1.852963
  C      -2.274248      3.263628     -1.706796
  C      -3.048159      2.158252     -0.935802
  C       0.867563     -0.884818     -0.807673
  O      -0.139783     -1.504903     -1.454237
  C       0.152509     -2.473359     -2.454591
  C       2.206128     -1.219318     -1.005624
  H       5.493516     -0.516417      1.214993
  H       6.461696     -0.831979     -0.247823
  H       5.604561      0.721283     -0.075771
  H       3.657556      0.916988      1.216987
  H       2.726087      1.735350      3.126473
  H       1.592553      3.110988      3.114765
  H       2.820493      2.970385      1.830777
  H      -2.749731     -1.157596     -1.111904
  H      -4.139627     -3.149089     -0.423455
  H      -4.325235     -3.742654      1.977717
  H      -3.139026     -2.389217      3.687706
  H      -1.733798     -0.457967      2.977631
  H      -0.142909      2.702782     -1.357265
  H      -0.765769      2.090526     -2.887877
  H      -2.731259      3.589224     -2.645684
  H      -2.070449      4.153746     -1.104523
  H      -3.309195      2.441236      0.094901
  H      -3.974319      1.823745     -1.417489
  H       0.733179     -2.032763     -3.271858
  H       0.690110     -3.331522     -2.037230
  H      -0.815104     -2.797900     -2.834408
  H       2.504295     -1.980703     -1.710993
45
Coordinates from ORCA-job file E -1360.566715169869
  C       5.532551     -0.292714      0.102280
  O       4.447774     -0.940620     -0.551696
  C       3.175367     -0.550308     -0.266113
  C       2.861428      0.449927      0.655626
  C       1.515198      0.773875      0.868904
  O       1.133070      1.742080      1.744320
  C       2.118237      2.483081      2.453347
  C       0.489473      0.116741      0.166685
  S      -1.188696      0.687500      0.455679
  C      -2.150969     -0.815334      0.889442
  C      -2.896824     -1.461502     -0.084757
  C      -3.682324     -2.552237      0.283442
  C      -3.719938     -2.977295      1.613342
  C      -2.978123     -2.304140      2.585320
  C      -2.193027     -1.209222      2.224995
  C      -1.856540      1.183140     -1.152956
  C      -0.979693      2.271977     -1.854268
  C      -2.150643      3.284912     -1.728732
  C      -2.980475      2.250252     -0.923609
  C       0.836323     -0.899567     -0.748124
  O      -0.179772     -1.533253     -1.365177
  C       0.100429     -2.507993     -2.361212
  C       2.173724     -1.227333     -0.962059
  H       5.485387     -0.435001      1.187479
  H       6.435809     -0.762931     -0.283306
  H       5.554162      0.777768     -0.129603
  H       3.636461      0.970282      1.193836
  H       2.721606      1.833112      3.096141
  H       1.564227      3.187523      3.071938
  H       2.769326      3.036357      1.768165
  H      -2.854600     -1.059362     -1.096118
  H      -4.270783     -3.070239     -0.467141
  H      -4.336981     -3.824294      1.894176
  H      -3.021939     -2.619924      3.621936
  H      -1.623417     -0.664558      2.971447
  H      -0.057008      2.608621     -1.363682
  H      -0.712275      2.004070     -2.883580
  H      -2.594794      3.605978     -2.675111
  H      -1.893930      4.181800     -1.157688
  H      -3.205263      2.568158      0.105580
  H      -3.933942      1.964110     -1.383390
  H       0.667222     -2.071813     -3.190291
  H       0.647835     -3.359929     -1.943765
  H      -0.870206     -2.842578     -2.723079
  H       2.466850     -1.999215     -1.658525
45
Coordinates from ORCA-job file E -1360.568258470187
  C       5.501235     -0.237772      0.085056
  O       4.417830     -0.908622     -0.547467
  C       3.145506     -0.528065     -0.254085
  C       2.830842      0.483759      0.655769
  C       1.484034      0.797672      0.878199
  O       1.095454      1.772231      1.740303
  C       2.077453      2.541400      2.422867
  C       0.460052      0.118783      0.197252
  S      -1.220930      0.665409      0.482616
  C      -2.163481     -0.863745      0.890218
  C      -2.974885     -1.436025     -0.076709
  C      -3.756727     -2.537238      0.267720
  C      -3.721711     -3.045478      1.567704
  C      -2.910926     -2.445841      2.533466
  C      -2.131986     -1.339132      2.198152
  C      -1.874129      1.203137     -1.116032
  C      -0.931520      2.196440     -1.867030
  C      -2.022681      3.297165     -1.752678
  C      -2.907259      2.356102     -0.892172
  C       0.806840     -0.907297     -0.707119
  O      -0.210213     -1.553579     -1.306076
  C       0.069301     -2.535208     -2.295348
  C       2.144768     -1.226930     -0.929574
  H       5.468212     -0.364727      1.172375
  H       6.405764     -0.702171     -0.303594
  H       5.507132      0.829125     -0.162178
  H       3.605742      1.020483      1.177685
  H       2.698465      1.913831      3.070635
  H       1.520251      3.248779      3.034531
  H       2.711529      3.091038      1.719474
  H      -2.970574     -0.969714     -1.062278
  H      -4.397004     -2.999518     -0.477013
  H      -4.335531     -3.900108      1.832083
  H      -2.896944     -2.828713      3.548171
  H      -1.512185     -0.850089      2.943505
  H       0.021545      2.475771     -1.400340
  H      -0.702150      1.879460     -2.891361
  H      -2.464881      3.613500     -2.701072
  H      -1.688074      4.194291     -1.224752
  H      -3.073004      2.717431      0.133659
  H      -3.894157      2.133147     -1.314105
  H       0.629594     -2.103901     -3.130833
  H       0.622635     -3.380959     -1.873731
  H      -0.901345     -2.878388     -2.647969
  H       2.438416     -2.005832     -1.617827
45
Coordinates from ORCA-job file E -1360.569859873554
  C       5.467662     -0.198912      0.083196
  O       4.385706     -0.885625     -0.535086
  C       3.114626     -0.509982     -0.238782
  C       2.798225      0.512048      0.659372
  C       1.451351      0.820703      0.885608
  O       1.053199      1.798433      1.733313
  C       2.031747      2.590444      2.394902
  C       0.428699      0.125020      0.221436
  S      -1.251550      0.652636      0.504026
  C      -2.170487     -0.905834      0.889395
  C      -3.048328     -1.411736     -0.056332
  C      -3.823741     -2.522571      0.271411
  C      -3.712709     -3.105421      1.534547
  C      -2.832876     -2.571825      2.478837
  C      -2.062077     -1.454394      2.162266
  C      -1.889388      1.234869     -1.076814
  C      -0.898338      2.126490     -1.884833
  C      -1.911084      3.305048     -1.781258
  C      -2.834930      2.457493     -0.861582
  C       0.778389     -0.910795     -0.676562
  O      -0.236436     -1.562874     -1.266899
  C       0.047954     -2.550225     -2.249854
  C       2.117007     -1.226498     -0.901492
  H       5.444232     -0.313527      1.171540
  H       6.371929     -0.661421     -0.306804
  H       5.464948      0.864630     -0.175296
  H       3.572254      1.061044      1.169862
  H       2.665216      1.983272      3.049159
  H       1.469999      3.300710      2.997920
  H       2.654096      3.135446      1.678339
  H      -3.081443     -0.888349     -1.012388
  H      -4.516201     -2.934937     -0.455940
  H      -4.320610     -3.967150      1.789434
  H      -2.758167     -3.016622      3.465484
  H      -1.391269     -1.017084      2.895887
  H       0.080715      2.350869     -1.445257
  H      -0.714447      1.763019     -2.902324
  H      -2.358482      3.610380     -2.729848
  H      -1.502140      4.197504     -1.301962
  H      -2.935922      2.855225      0.158489
  H      -3.848667      2.295690     -1.243303
  H       0.610628     -2.124656     -3.085649
  H       0.599693     -3.393452     -1.822358
  H      -0.921394     -2.896301     -2.601727
  H       2.412711     -2.010879     -1.581975
45
Coordinates from ORCA-job file E -1360.571372147930
  C       5.438302     -0.160741      0.080316
  O       4.357498     -0.863829     -0.521442
  C       3.087310     -0.492346     -0.221615
  C       2.770447      0.540821      0.663895
  C       1.423647      0.844127      0.895621
  O       1.018543      1.827219      1.729885
  C       1.993720      2.643000      2.367523
  C       0.402025      0.131624      0.249652
  S      -1.278225      0.641810      0.526770
  C      -2.175956     -0.945098      0.884069
  C      -3.116089     -1.382301     -0.034950
  C      -3.888526     -2.500936      0.272716
  C      -3.707951     -3.159544      1.489237
  C      -2.762417     -2.694258      2.406353
  C      -1.997187     -1.567118      2.112931
  C      -1.899430      1.266305     -1.034542
  C      -0.878227      2.056768     -1.901435
  C      -1.812057      3.301999     -1.808240
  C      -2.755453      2.549515     -0.825625
  C       0.752600     -0.913631     -0.639912
  O      -0.261700     -1.573667     -1.217777
  C       0.024060     -2.566745     -2.194838
  C       2.091366     -1.225919     -0.868687
  H       5.424479     -0.261337      1.169842
  H       6.342515     -0.621688     -0.310583
  H       5.426227      0.899047     -0.191259
  H       3.544163      1.102233      1.161234
  H       2.640627      2.056828      3.027160
  H       1.428711      3.357015      2.962271
  H       2.602732      3.181809      1.635544
  H      -3.182355     -0.800604     -0.955826
  H      -4.630688     -2.861680     -0.432896
  H      -4.312146     -4.027595      1.731197
  H      -2.632442     -3.201292      3.356757
  H      -1.278134     -1.182839      2.830715
  H       0.124053      2.229298     -1.493094
  H      -0.745584      1.651401     -2.910729
  H      -2.273922      3.594980     -2.753180
  H      -1.332505      4.185873     -1.382941
  H      -2.784426      2.979344      0.185802
  H      -3.792729      2.449039     -1.160951
  H       0.585421     -2.146183     -3.033349
  H       0.577019     -3.406442     -1.762750
  H      -0.944917     -2.917285     -2.542153
  H       2.387899     -2.017074     -1.540620
45
Coordinates from ORCA-job file E -1360.572751843990
  C       5.414342     -0.149090      0.098558
  O       4.333866     -0.860878     -0.494761
  C       3.066024     -0.486060     -0.198583
  C       2.747455      0.557174      0.672707
  C       1.400941      0.860609      0.902256
  O       0.984833      1.845873      1.720638
  C       1.958252      2.679459      2.340096
  C       0.377497      0.137742      0.268968
  S      -1.297781      0.649273      0.538705
  C      -2.176735     -0.969124      0.878237
  C      -3.171142     -1.352855     -0.008489
  C      -3.939598     -2.477209      0.286639
  C      -3.694849     -3.195292      1.456510
  C      -2.693011     -2.782630      2.338121
  C      -1.933564     -1.647226      2.062495
  C      -1.900439      1.315095     -0.980746
  C      -0.884623      2.005338     -1.924716
  C      -1.759747      3.300368     -1.838603
  C      -2.693704      2.631735     -0.780684
  C       0.734920     -0.918747     -0.616581
  O      -0.271947     -1.581372     -1.195020
  C       0.026022     -2.575850     -2.168946
  C       2.074553     -1.232404     -0.840305
  H       5.404716     -0.236857      1.188392
  H       6.315815     -0.615630     -0.290095
  H       5.403293      0.906979     -0.183606
  H       3.520023      1.126531      1.163277
  H       2.612370      2.112237      3.007828
  H       1.388592      3.397915      2.923550
  H       2.560754      3.209995      1.597958
  H      -3.260821     -0.725293     -0.895164
  H      -4.725315     -2.798394     -0.390451
  H      -4.292275     -4.069532      1.692854
  H      -2.512477     -3.341381      3.250981
  H      -1.171762     -1.308015      2.758621
  H       0.138360      2.142291     -1.557979
  H      -0.811150      1.560521     -2.922397
  H      -2.254800      3.564158     -2.773841
  H      -1.224883      4.180885     -1.481711
  H      -2.646157      3.091280      0.216125
  H      -3.748963      2.576587     -1.061085
  H       0.595093     -2.157511     -3.001812
  H       0.573880     -3.415615     -1.732385
  H      -0.940216     -2.926185     -2.522369
  H       2.374657     -2.028993     -1.503086
45
Coordinates from ORCA-job file E -1360.574356358721
  C       5.393854     -0.091053      0.086734
  O       4.318793     -0.825253     -0.487176
  C       3.049332     -0.462578     -0.183599
  C       2.727932      0.588142      0.679671
  C       1.380423      0.880079      0.917017
  O       0.960173      1.870448      1.728326
  C       1.926867      2.726904      2.324705
  C       0.362519      0.140137      0.299366
  S      -1.319914      0.628242      0.557677
  C      -2.187262     -1.007491      0.868576
  C      -3.236377     -1.321932      0.020760
  C      -4.009628     -2.448066      0.296730
  C      -3.711393     -3.236989      1.406990
  C      -2.651534     -2.892961      2.250357
  C      -1.888370     -1.755236      1.996445
  C      -1.909848      1.331831     -0.945076
  C      -0.888963      1.918943     -1.946308
  C      -1.663344      3.273828     -1.861996
  C      -2.588519      2.709136     -0.741732
  C       0.719264     -0.920182     -0.573952
  O      -0.289983     -1.594226     -1.136155
  C       0.003045     -2.589708     -2.108884
  C       2.059197     -1.225103     -0.806255
  H       5.394544     -0.165745      1.177670
  H       6.299572     -0.547618     -0.303522
  H       5.363538      0.961222     -0.208425
  H       3.498383      1.170885      1.156849
  H       2.595869      2.178085      2.993132
  H       1.354650      3.446448      2.904087
  H       2.513133      3.253912      1.567122
  H      -3.353550     -0.641846     -0.826043
  H      -4.838900     -2.717711     -0.350501
  H      -4.311591     -4.113446      1.627732
  H      -2.428999     -3.507724      3.116696
  H      -1.082679     -1.468351      2.666397
  H       0.155014      1.988982     -1.621409
  H      -0.886303      1.446097     -2.933957
  H      -2.184424      3.543785     -2.781308
  H      -1.051704      4.126021     -1.563675
  H      -2.451586      3.186234      0.238851
  H      -3.659232      2.733769     -0.964650
  H       0.563402     -2.170871     -2.947537
  H       0.558429     -3.425118     -1.673213
  H      -0.963604     -2.947528     -2.453002
  H       2.360076     -2.026494     -1.463417
45
Coordinates from ORCA-job file E -1360.573892526460
  C       5.440763     -0.046520      0.106476
  O       4.381672     -0.781009     -0.486917
  C       3.099221     -0.437854     -0.181963
  C       2.777940      0.593822      0.712283
  C       1.428393      0.873650      0.954194
  O       1.036303      1.861494      1.815292
  C       1.996605      2.700900      2.433974
  C       0.423803      0.147383      0.311935
  S      -1.296623      0.595902      0.551229
  C      -2.176702     -1.027207      0.883303
  C      -3.262145     -1.264412      0.064473
  C      -4.075623     -2.364167      0.337262
  C      -3.787489     -3.198393      1.421052
  C      -2.687652     -2.932618      2.242785
  C      -1.880807     -1.824350      1.984441
  C      -1.897322      1.272041     -0.938165
  C      -0.953281      1.818861     -2.017505
  C      -1.739453      3.146373     -1.978587
  C      -2.575184      2.658550     -0.778250
  C       0.759799     -0.868451     -0.562939
  O      -0.274768     -1.526805     -1.137983
  C      -0.026193     -2.494949     -2.139545
  C       2.097531     -1.171396     -0.807074
  H       5.424595     -0.147163      1.198220
  H       6.367390     -0.468877     -0.278207
  H       5.385200      1.013407     -0.170242
  H       3.546785      1.162248      1.205234
  H       2.663149      2.121135      3.082438
  H       1.436248      3.412223      3.038621
  H       2.579802      3.243359      1.681227
  H      -3.392769     -0.553544     -0.767852
  H      -4.937426     -2.575061     -0.289489
  H      -4.426634     -4.049337      1.632369
  H      -2.470100     -3.579882      3.085330
  H      -1.041610     -1.590180      2.632658
  H       0.107357      1.926124     -1.742441
  H      -0.989112      1.292080     -2.980541
  H      -2.325203      3.345751     -2.881725
  H      -1.131359      4.035053     -1.779378
  H      -2.382074      3.216424      0.153639
  H      -3.664763      2.666229     -0.933169
  H       0.534108     -2.056330     -2.973248
  H       0.519499     -3.352078     -1.728070
  H      -1.000220     -2.830657     -2.488805
  H       2.388649     -1.961870     -1.486242
45
Coordinates from ORCA-job file E -1360.577913955734
  C       5.404157     -0.041592      0.125018
  O       4.342833     -0.783081     -0.460480
  C       3.066445     -0.434617     -0.160630
  C       2.737328      0.605761      0.717797
  C       1.387257      0.885886      0.953064
  O       0.969565      1.866187      1.788776
  C       1.927321      2.720263      2.396736
  C       0.380661      0.151734      0.317755
  S      -1.326129      0.617379      0.553920
  C      -2.186836     -1.035885      0.868013
  C      -3.314752     -1.254304      0.097531
  C      -4.109875     -2.365746      0.374421
  C      -3.756075     -3.231901      1.409756
  C      -2.613296     -2.985041      2.175859
  C      -1.824597     -1.864367      1.919364
  C      -1.910424      1.341301     -0.894560
  C      -0.986746      1.775235     -2.040458
  C      -1.667667      3.172712     -1.985611
  C      -2.477647      2.769869     -0.722656
  C       0.736393     -0.887319     -0.557165
  O      -0.276431     -1.555385     -1.134667
  C       0.011602     -2.527711     -2.127290
  C       2.077545     -1.187791     -0.789668
  H       5.395976     -0.127504      1.215967
  H       6.322614     -0.476928     -0.260663
  H       5.357259      1.013593     -0.161507
  H       3.502187      1.183233      1.207872
  H       2.597308      2.162067      3.057589
  H       1.354747      3.432025      2.986151
  H       2.510305      3.257833      1.642922
  H      -3.472704     -0.518541     -0.699831
  H      -5.002630     -2.563941     -0.211659
  H      -4.375299     -4.095439      1.629046
  H      -2.345582     -3.662246      2.980388
  H      -0.952296     -1.651564      2.530749
  H       0.088674      1.798996     -1.819763
  H      -1.112935      1.237831     -2.987496
  H      -2.288012      3.391023     -2.857093
  H      -0.985629      4.013766     -1.846931
  H      -2.185273      3.313476      0.188236
  H      -3.565690      2.864967     -0.816119
  H       0.581544     -2.091211     -2.951962
  H       0.558327     -3.376701     -1.704986
  H      -0.952967     -2.874272     -2.488931
  H       2.379744     -1.982147     -1.456704
45
Coordinates from ORCA-job file E -1360.580138659005
  C       5.391526     -0.017614      0.141720
  O       4.332084     -0.762446     -0.443893
  C       3.056172     -0.419931     -0.142364
  C       2.720835      0.616268      0.739095
  C       1.369426      0.889964      0.974577
  O       0.941274      1.859483      1.810698
  C       1.894522      2.719059      2.418468
  C       0.365830      0.154907      0.335528
  S      -1.343803      0.626668      0.560407
  C      -2.195028     -1.041512      0.864678
  C      -3.360787     -1.229811      0.141566
  C      -4.149867     -2.345261      0.419595
  C      -3.750871     -3.247613      1.405290
  C      -2.569796     -3.032635      2.120618
  C      -1.785985     -1.908615      1.864683
  C      -1.917881      1.378559     -0.855430
  C      -1.054953      1.692369     -2.081659
  C      -1.632541      3.139039     -2.040443
  C      -2.374713      2.846757     -0.702927
  C       0.730134     -0.881649     -0.546137
  O      -0.274532     -1.549164     -1.133021
  C       0.029714     -2.510892     -2.132535
  C       2.073384     -1.176669     -0.777681
  H       5.388554     -0.106426      1.231850
  H       6.309310     -0.449176     -0.248799
  H       5.341189      1.037794     -0.140740
  H       3.482459      1.195178      1.232909
  H       2.569274      2.167052      3.079011
  H       1.315952      3.425027      3.008214
  H       2.473700      3.262505      1.666566
  H      -3.551402     -0.470167     -0.621325
  H      -5.070981     -2.520200     -0.128555
  H      -4.363601     -4.115558      1.625277
  H      -2.266393     -3.739835      2.885923
  H      -0.881185     -1.724915      2.437069
  H       0.030640      1.644650     -1.927515
  H      -1.280983      1.131523     -2.995084
  H      -2.303214      3.358745     -2.872239
  H      -0.889793      3.936428     -1.994407
  H      -1.973888      3.397661      0.159265
  H      -3.455330      3.021513     -0.721719
  H       0.606170     -2.065962     -2.947077
  H       0.574973     -3.362325     -1.714403
  H      -0.929900     -2.857166     -2.506990
  H       2.380604     -1.965707     -1.447964
45
Coordinates from ORCA-job file E -1360.582399777532
  C       5.403960     -0.072461      0.198964
  O       4.331145     -0.773213     -0.423481
  C       3.056986     -0.423532     -0.127855
  C       2.707797      0.581892      0.778481
  C       1.352635      0.858397      1.001946
  O       0.909078      1.792686      1.854059
  C       1.866887      2.620838      2.504132
  C       0.345317      0.149734      0.325027
  S      -1.361216      0.695234      0.571756
  C      -2.211259     -0.962503      0.881435
  C      -3.384077     -1.220909      0.177383
  C      -4.123123     -2.361969      0.483993
  C      -3.681168     -3.228953      1.479679
  C      -2.505542     -2.950762      2.176044
  C      -1.764865     -1.806270      1.885062
  C      -1.961945      1.445069     -0.818712
  C      -1.185539      1.640597     -2.134620
  C      -1.699598      3.123276     -2.147165
  C      -2.357402      2.940281     -0.729934
  C       0.738852     -0.869951     -0.603369
  O      -0.239754     -1.521259     -1.242751
  C       0.116216     -2.460591     -2.255939
  C       2.089025     -1.159302     -0.817181
  H       5.398340     -0.200430      1.284069
  H       6.308149     -0.517865     -0.208354
  H       5.386672      0.992580     -0.042222
  H       3.465291      1.139320      1.306911
  H       2.527936      2.048463      3.160663
  H       1.278146      3.309591      3.104187
  H       2.467172      3.188191      1.788087
  H      -3.659634     -0.511163     -0.584719
  H      -5.039599     -2.581461     -0.053685
  H      -4.256230     -4.116628      1.720498
  H      -2.164862     -3.626939      2.953849
  H      -0.854232     -1.583745      2.433422
  H      -0.097344      1.547263     -2.052290
  H      -1.501945      1.036394     -2.989475
  H      -2.423546      3.316493     -2.937532
  H      -0.924718      3.885948     -2.204778
  H      -1.876801      3.525088      0.059244
  H      -3.426230      3.150485     -0.688201
  H       0.718024     -1.999573     -3.040727
  H       0.651778     -3.320279     -1.844602
  H      -0.830187     -2.796237     -2.673965
  H       2.411712     -1.921927     -1.507235
45
Coordinates from ORCA-job file E -1360.585741688743
  C       5.406810     -0.051314      0.233200
  O       4.343196     -0.757237     -0.395916
  C       3.063604     -0.412532     -0.106721
  C       2.712528      0.592771      0.799618
  C       1.356510      0.867184      1.020437
  O       0.917420      1.807065      1.881205
  C       1.869563      2.638715      2.532496
  C       0.354829      0.154942      0.342050
  S      -1.365463      0.693415      0.568213
  C      -2.203582     -0.970238      0.863085
  C      -3.405134     -1.192654      0.200047
  C      -4.144593     -2.336352      0.498887
  C      -3.675540     -3.241989      1.448266
  C      -2.469381     -3.000308      2.105952
  C      -1.728748     -1.853930      1.820782
  C      -1.966337      1.466512     -0.792321
  C      -1.301821      1.566917     -2.171320
  C      -1.709802      3.075656     -2.193505
  C      -2.250688      2.985611     -0.724527
  C       0.744441     -0.856590     -0.580706
  O      -0.242698     -1.505323     -1.222563
  C       0.098103     -2.442241     -2.240097
  C       2.094214     -1.145402     -0.794118
  H       5.391746     -0.181345      1.319027
  H       6.319744     -0.487181     -0.165988
  H       5.380930      1.014821     -0.007930
  H       3.469118      1.149369      1.329412
  H       2.530660      2.065259      3.189072
  H       1.281528      3.328541      3.133175
  H       2.468623      3.205678      1.814103
  H      -3.709674     -0.458797     -0.533925
  H      -5.083805     -2.527431     -0.010092
  H      -4.252433     -4.130580      1.681302
  H      -2.105096     -3.705562      2.846089
  H      -0.793492     -1.660166      2.337488
  H      -0.217958      1.397850     -2.169929
  H      -1.730125      0.963884     -2.978668
  H      -2.489241      3.292133     -2.924347
  H      -0.894603      3.782565     -2.347836
  H      -1.661167      3.559745     -0.001775
  H      -3.296748      3.275854     -0.601985
  H       0.700858     -1.980846     -3.025659
  H       0.629063     -3.306965     -1.831580
  H      -0.851311     -2.771033     -2.657085
  H       2.416252     -1.908571     -1.485211
45
Coordinates from ORCA-job file E -1360.588377681420
  C       5.413441     -0.085256      0.300541
  O       4.358092     -0.747487     -0.381747
  C       3.071545     -0.400905     -0.096975
  C       2.728619      0.567053      0.850469
  C       1.373948      0.850907      1.068323
  O       0.957534      1.775138      1.980949
  C       1.912722      2.557045      2.682459
  C       0.375234      0.179487      0.351922
  S      -1.361171      0.725833      0.557720
  C      -2.169753     -0.918237      0.870094
  C      -3.358436     -1.174482      0.207022
  C      -4.070497     -2.335716      0.510095
  C      -3.592016     -3.224365      1.474709
  C      -2.396104     -2.948090      2.140798
  C      -1.682298     -1.788453      1.840885
  C      -1.995868      1.467938     -0.808567
  C      -1.450409      1.454415     -2.234902
  C      -1.802380      2.962811     -2.329735
  C      -2.211034      2.995043     -0.827596
  C       0.746698     -0.779211     -0.599889
  O      -0.267597     -1.382018     -1.267592
  C       0.029234     -2.300310     -2.308939
  C       2.090165     -1.078730     -0.818812
  H       5.366426     -0.268991      1.379989
  H       6.337072     -0.505008     -0.094489
  H       5.395434      0.993630      0.108514
  H       3.489822      1.084996      1.410670
  H       2.551172      1.933416      3.317978
  H       1.337483      3.235983      3.310036
  H       2.532410      3.139517      1.992063
  H      -3.707452     -0.457492     -0.537943
  H      -5.000324     -2.548398     -0.008196
  H      -4.152215     -4.123045      1.709707
  H      -2.019949     -3.633004      2.893206
  H      -0.751080     -1.569703      2.354172
  H      -0.373570      1.244093     -2.309799
  H      -1.969271      0.814879     -2.960438
  H      -2.636464      3.165237     -3.006369
  H      -0.973231      3.622038     -2.597744
  H      -1.538260      3.596639     -0.200419
  H      -3.238412      3.333740     -0.642288
  H       0.640591     -1.831662     -3.087708
  H       0.539582     -3.188254     -1.920363
  H      -0.931171     -2.593086     -2.728658
  H       2.402038     -1.818033     -1.543055
45
Coordinates from ORCA-job file E -1360.589804221313
  C       5.426519     -0.103683      0.345684
  O       4.366916     -0.759014     -0.339580
  C       3.079724     -0.402885     -0.064242
  C       2.729724      0.567908      0.876004
  C       1.372474      0.854219      1.081529
  O       0.948594      1.779814      1.986685
  C       1.904075      2.560225      2.691904
  C       0.373876      0.180697      0.363077
  S      -1.368327      0.757360      0.562968
  C      -2.171902     -0.887499      0.841545
  C      -3.385756     -1.137242      0.218486
  C      -4.073565     -2.315909      0.509519
  C      -3.552043     -3.229314      1.426242
  C      -2.335242     -2.960836      2.054527
  C      -1.642055     -1.786447      1.763408
  C      -2.014791      1.526106     -0.770149
  C      -1.613963      1.427338     -2.242817
  C      -1.872766      2.956471     -2.363304
  C      -2.122011      3.064664     -0.825993
  C       0.758312     -0.784985     -0.586996
  O      -0.247621     -1.398851     -1.258939
  C       0.067696     -2.331353     -2.285538
  C       2.104405     -1.084546     -0.794103
  H       5.375123     -0.282226      1.425527
  H       6.345797     -0.536528     -0.046393
  H       5.422030      0.974316      0.150319
  H       3.487288      1.085949      1.442243
  H       2.535810      1.938103      3.335643
  H       1.324621      3.243400      3.311335
  H       2.532651      3.138079      2.005742
  H      -3.782070     -0.411380     -0.483846
  H      -5.019362     -2.520256      0.018552
  H      -4.094048     -4.141016      1.652817
  H      -1.924079     -3.663779      2.771214
  H      -0.692155     -1.576928      2.244482
  H      -0.566451      1.140992     -2.411598
  H      -2.239072      0.801328     -2.891249
  H      -2.756600      3.196027     -2.959083
  H      -1.033715      3.546150     -2.739239
  H      -1.350255      3.635271     -0.295341
  H      -3.097661      3.483107     -0.553503
  H       0.683338     -1.871147     -3.065656
  H       0.580751     -3.210243     -1.880820
  H      -0.888006     -2.634518     -2.710063
  H       2.424094     -1.827037     -1.510897
45
Coordinates from ORCA-job file E -1360.590613742053
  C       5.445097     -0.137267      0.393936
  O       4.386976     -0.754690     -0.329185
  C       3.100683     -0.394974     -0.054035
  C       2.746599      0.540214      0.918602
  C       1.387732      0.829375      1.115670
  O       0.958499      1.725032      2.047145
  C       1.914077      2.465260      2.795524
  C       0.390388      0.191337      0.364232
  S      -1.358629      0.799854      0.558590
  C      -2.160786     -0.826575      0.846920
  C      -3.365724     -1.106433      0.217612
  C      -4.035000     -2.293982      0.516365
  C      -3.508799     -3.184548      1.451171
  C      -2.305066     -2.883692      2.089965
  C      -1.627280     -1.703670      1.788840
  C      -2.038262      1.547955     -0.767956
  C      -1.783459      1.345986     -2.264225
  C      -2.006267      2.877171     -2.451620
  C      -2.072547      3.082783     -0.903913
  C       0.784293     -0.740466     -0.620072
  O      -0.217404     -1.328835     -1.321082
  C       0.109171     -2.248261     -2.357698
  C       2.130141     -1.040785     -0.824298
  H       5.377365     -0.353300      1.465636
  H       6.362978     -0.568377     -0.002744
  H       5.457119      0.946749      0.238338
  H       3.500912      1.029272      1.514499
  H       2.527587      1.811494      3.425000
  H       1.332547      3.131897      3.430442
  H       2.561385      3.059659      2.142068
  H      -3.776237     -0.398340     -0.491067
  H      -4.970639     -2.519895      0.015970
  H      -4.035878     -4.103080      1.684836
  H      -1.891357     -3.565723      2.825151
  H      -0.686352     -1.472030      2.276016
  H      -0.769146      1.016501     -2.523783
  H      -2.485907      0.701367     -2.805530
  H      -2.940170      3.122988     -2.960925
  H      -1.192276      3.405252     -2.952071
  H      -1.220817      3.641563     -0.499369
  H      -2.989431      3.565459     -0.549067
  H       0.730836     -1.777503     -3.126281
  H       0.620776     -3.130880     -1.960269
  H      -0.842974     -2.545996     -2.793610
  H       2.455550     -1.757966     -1.563630
45
Coordinates from ORCA-job file E -1360.590912159099
  C       5.478751     -0.131022      0.414452
  O       4.420514     -0.762448     -0.296104
  C       3.131830     -0.399635     -0.024759
  C       2.777728      0.550097      0.932338
  C       1.416907      0.837881      1.123547
  O       0.989596      1.749392      2.047556
  C       1.944110      2.494494      2.792678
  C       0.419272      0.185818      0.386443
  S      -1.344302      0.811244      0.571294
  C      -2.160478     -0.805221      0.811093
  C      -3.374176     -1.054784      0.185968
  C      -4.043922     -2.251622      0.446013
  C      -3.512884     -3.178941      1.341893
  C      -2.301461     -2.907269      1.979563
  C      -1.619688     -1.721004      1.713880
  C      -2.043665      1.579104     -0.734240
  C      -1.918734      1.342490     -2.240958
  C      -2.130579      2.872672     -2.439025
  C      -2.016925      3.109232     -0.901007
  C       0.813979     -0.759559     -0.578645
  O      -0.191188     -1.364017     -1.268265
  C       0.129983     -2.320185     -2.272554
  C       2.159413     -1.058938     -0.781830
  H       5.409766     -0.326122      1.490648
  H       6.397744     -0.569176      0.026674
  H       5.489241      0.950361      0.237170
  H       3.531360      1.050154      1.519721
  H       2.552210      1.843176      3.430741
  H       1.362810      3.170343      3.418923
  H       2.596400      3.079094      2.134573
  H      -3.789995     -0.315551     -0.489710
  H      -4.985593     -2.453616     -0.053223
  H      -4.040481     -4.104181      1.545927
  H      -1.884310     -3.617300      2.685630
  H      -0.671506     -1.514110      2.196644
  H      -0.938154      0.994012     -2.588589
  H      -2.674398      0.695571     -2.703740
  H      -3.107491      3.136230     -2.850711
  H      -1.362470      3.367850     -3.038086
  H      -1.100269      3.635943     -0.608773
  H      -2.864304      3.644772     -0.456041
  H       0.745441     -1.875037     -3.062193
  H       0.647924     -3.185239     -1.844897
  H      -0.824348     -2.637049     -2.690714
  H       2.486641     -1.788008     -1.509201
45
Coordinates from ORCA-job file E -1360.591229588833
  C       5.480314     -0.140899      0.448617
  O       4.427343     -0.754647     -0.283391
  C       3.139374     -0.392943     -0.015464
  C       2.783258      0.540104      0.958678
  C       1.423181      0.831564      1.146003
  O       0.991987      1.723130      2.085107
  C       1.944291      2.447165      2.851973
  C       0.430029      0.199742      0.388890
  S      -1.337044      0.823338      0.556468
  C      -2.149699     -0.794165      0.822117
  C      -3.391632     -1.017961      0.242607
  C      -4.072109     -2.204374      0.521399
  C      -3.519017     -3.147155      1.386516
  C      -2.277349     -2.901368      1.975592
  C      -1.586525     -1.724413      1.694566
  C      -2.032406      1.564584     -0.763820
  C      -1.942412      1.278272     -2.260705
  C      -2.183977      2.798655     -2.496864
  C      -2.000419      3.085707     -0.974716
  C       0.825825     -0.723283     -0.594964
  O      -0.178106     -1.290906     -1.314705
  C       0.141942     -2.227184     -2.336583
  C       2.170155     -1.029997     -0.794491
  H       5.401644     -0.357478      1.519779
  H       6.401918     -0.572633      0.061166
  H       5.494863      0.943572      0.293312
  H       3.534827      1.024229      1.561597
  H       2.545931      1.779257      3.478585
  H       1.363201      3.111091      3.490213
  H       2.602501      3.043752      2.211056
  H      -3.808357     -0.260627     -0.414317
  H      -5.037432     -2.387730      0.061348
  H      -4.052476     -4.065605      1.605711
  H      -1.844110     -3.626505      2.656286
  H      -0.617160     -1.538558      2.142675
  H      -0.962272      0.939293     -2.619922
  H      -2.697561      0.603851     -2.682928
  H      -3.184281      3.034136     -2.865701
  H      -1.453742      3.283130     -3.148989
  H      -1.060366      3.602920     -0.744735
  H      -2.816810      3.648928     -0.506842
  H       0.772724     -1.773033     -3.108279
  H       0.642538     -3.109069     -1.923238
  H      -0.810684     -2.522804     -2.772528
  H       2.498404     -1.743185     -1.536980
45
Coordinates from ORCA-job file E -1360.591491426627
  C       5.498076     -0.181466      0.473325
  O       4.444607     -0.770181     -0.278428
  C       3.159008     -0.398375     -0.017629
  C       2.802953      0.521220      0.969577
  C       1.443992      0.822905      1.150186
  O       1.010429      1.701305      2.098921
  C       1.962314      2.395603      2.893754
  C       0.452072      0.215501      0.372336
  S      -1.317838      0.844736      0.540032
  C      -2.136474     -0.766957      0.827979
  C      -3.369606     -1.002979      0.229910
  C      -4.056584     -2.182176      0.520587
  C      -3.518755     -3.105369      1.414916
  C      -2.289679     -2.845931      2.023538
  C      -1.591622     -1.675451      1.733531
  C      -2.031307      1.556291     -0.792453
  C      -1.930899      1.266805     -2.287007
  C      -2.300682      2.764828     -2.519741
  C      -2.069956      3.072528     -1.006364
  C       0.849628     -0.693845     -0.628002
  O      -0.152203     -1.241205     -1.363620
  C       0.165182     -2.189463     -2.375727
  C       2.192492     -1.013009     -0.819159
  H       5.406994     -0.412686      1.540144
  H       6.417307     -0.619861      0.088245
  H       5.529236      0.904605      0.334784
  H       3.553312      0.987731      1.587675
  H       2.549024      1.706530      3.511154
  H       1.381210      3.050400      3.541032
  H       2.634911      3.000277      2.276135
  H      -3.761994     -0.249875     -0.443723
  H      -5.014113     -2.376067      0.048749
  H      -4.054502     -4.019960      1.644555
  H      -1.871479     -3.557940      2.727372
  H      -0.632140     -1.481970      2.199072
  H      -0.928987      1.018709     -2.659692
  H      -2.628420      0.526402     -2.696977
  H      -3.332317      2.918214     -2.840268
  H      -1.639556      3.297683     -3.206595
  H      -1.135829      3.620677     -0.825448
  H      -2.880599      3.611340     -0.503048
  H       0.800615     -1.747743     -3.150316
  H       0.658700     -3.071042     -1.953732
  H      -0.788345     -2.483352     -2.810719
  H       2.522125     -1.717488     -1.568763
45
Coordinates from ORCA-job file E -1360.591686347195
  C       5.505176     -0.180417      0.492643
  O       4.454377     -0.770796     -0.260853
  C       3.167450     -0.399813     -0.005216
  C       2.808018      0.521238      0.979591
  C       1.448465      0.823336      1.156130
  O       1.011496      1.702894      2.102447
  C       1.959601      2.395718      2.902457
  C       0.460612      0.215399      0.374086
  S      -1.312238      0.846970      0.529697
  C      -2.134362     -0.764568      0.817149
  C      -3.389148     -0.976414      0.255125
  C      -4.080272     -2.152495      0.546726
  C      -3.525311     -3.098005      1.407117
  C      -2.273533     -2.864938      1.978129
  C      -1.570978     -1.697429      1.685565
  C      -2.022275      1.565022     -0.801902
  C      -1.957039      1.263379     -2.294458
  C      -2.346495      2.756513     -2.526841
  C      -2.047580      3.079313     -1.028223
  C       0.860169     -0.695036     -0.622867
  O      -0.139572     -1.241324     -1.362026
  C       0.179430     -2.196182     -2.366740
  C       2.203608     -1.015324     -0.809077
  H       5.412004     -0.410956      1.559570
  H       6.426139     -0.617974      0.110390
  H       5.535500      0.905678      0.353093
  H       3.556643      0.989039      1.598772
  H       2.543920      1.705686      3.521221
  H       1.375984      3.049450      3.548785
  H       2.634825      3.002192      2.289254
  H      -3.792007     -0.206843     -0.393227
  H      -5.054722     -2.327379      0.103012
  H      -4.064563     -4.010276      1.637884
  H      -1.841028     -3.595490      2.653678
  H      -0.593951     -1.524738      2.121762
  H      -0.958612      1.028045     -2.686010
  H      -2.653658      0.511552     -2.683602
  H      -3.395555      2.894377     -2.793447
  H      -1.726569      3.289132     -3.251502
  H      -1.092989      3.607818     -0.902438
  H      -2.821211      3.642277     -0.494613
  H       0.816487     -1.760218     -3.143542
  H       0.671875     -3.075235     -1.938001
  H      -0.773157     -2.492996     -2.802147
  H       2.535343     -1.720284     -1.557452
45
Coordinates from ORCA-job file E -1360.591819586616
  C       5.510483     -0.180497      0.506166
  O       4.461261     -0.773806     -0.246823
  C       3.172818     -0.403020      0.004763
  C       2.810662      0.519448      0.986768
  C       1.450839      0.824181      1.158166
  O       1.012856      1.705891      2.102492
  C       1.959033      2.392812      2.909377
  C       0.465992      0.213914      0.373524
  S      -1.306673      0.850620      0.520802
  C      -2.134789     -0.757919      0.808869
  C      -3.403270     -0.956063      0.273191
  C      -4.095081     -2.130815      0.565945
  C      -3.528532     -3.091502      1.402841
  C      -2.262611     -2.874424      1.947148
  C      -1.559456     -1.707654      1.650729
  C      -2.012280      1.571394     -0.811007
  C      -1.964784      1.266485     -2.302640
  C      -2.384923      2.751722     -2.530794
  C      -2.037632      3.084787     -1.044271
  C       0.866297     -0.700967     -0.617281
  O      -0.131685     -1.249026     -1.357911
  C       0.190087     -2.205025     -2.360193
  C       2.210750     -1.019498     -0.800197
  H       5.416539     -0.408841      1.573702
  H       6.432499     -0.617944      0.125736
  H       5.539782      0.905484      0.364035
  H       3.558274      0.987936      1.606866
  H       2.539322      1.698812      3.527707
  H       1.374262      3.045444      3.556137
  H       2.638422      3.000816      2.301962
  H      -3.820612     -0.179360     -0.357504
  H      -5.079731     -2.294058      0.140803
  H      -4.069787     -4.002478      1.634000
  H      -1.819281     -3.615778      2.603439
  H      -0.570572     -1.547073      2.064247
  H      -0.962334      1.056999     -2.701204
  H      -2.646763      0.498675     -2.684941
  H      -3.449048      2.861283     -2.747306
  H      -1.809927      3.295709     -3.283635
  H      -1.071001      3.601210     -0.964361
  H      -2.782762      3.662790     -0.487428
  H       0.823273     -1.768156     -3.140088
  H       0.688116     -3.080285     -1.929942
  H      -0.761689     -2.507448     -2.794024
  H       2.543953     -1.724874     -1.547765
45
Coordinates from ORCA-job file E -1360.591869999823
  C       5.514212     -0.176930      0.506588
  O       4.465841     -0.771499     -0.246694
  C       3.176913     -0.401959      0.004973
  C       2.813148      0.517875      0.988743
  C       1.452802      0.820830      1.159861
  O       1.013462      1.700766      2.104894
  C       1.958246      2.383045      2.917244
  C       0.469465      0.211550      0.372464
  S      -1.301894      0.850111      0.518817
  C      -2.135788     -0.754558      0.809175
  C      -3.404156     -0.950761      0.273391
  C      -4.098859     -2.123359      0.567587
  C      -3.535981     -3.084799      1.406390
  C      -2.270234     -2.869682      1.951849
  C      -1.564671     -1.704886      1.653320
  C      -2.007191      1.570799     -0.814141
  C      -1.966267      1.264241     -2.305763
  C      -2.403839      2.744439     -2.531337
  C      -2.029751      3.083503     -1.052712
  C       0.870810     -0.700925     -0.619589
  O      -0.126367     -1.251539     -1.359161
  C       0.198145     -2.203026     -2.364874
  C       2.215890     -1.017258     -0.801885
  H       5.420994     -0.406414      1.573917
  H       6.436751     -0.612488      0.125296
  H       5.541565      0.909217      0.365494
  H       3.560063      0.985355      1.610396
  H       2.537349      1.685583      3.532703
  H       1.372153      3.032165      3.566291
  H       2.638829      2.994362      2.314499
  H      -3.823231     -0.176347     -0.359160
  H      -5.083289     -2.284477      0.141093
  H      -4.080470     -3.993755      1.637832
  H      -1.828766     -3.610087      2.610378
  H      -0.575778     -1.544978      2.067127
  H      -0.961485      1.069558     -2.706720
  H      -2.637716      0.486888     -2.686626
  H      -3.475283      2.837398     -2.718266
  H      -1.856932      3.294781     -3.300062
  H      -1.056973      3.592186     -0.997000
  H      -2.757630      3.671448     -0.484040
  H       0.826793     -1.760221     -3.145127
  H       0.702311     -3.076542     -1.938444
  H      -0.752934     -2.509120     -2.797611
  H       2.550045     -1.720587     -1.551011
45
Coordinates from ORCA-job file E -1360.591901531688
  C       5.512291     -0.173163      0.500163
  O       4.463242     -0.769439     -0.251236
  C       3.174549     -0.400679      0.002908
  C       2.811251      0.517653      0.988201
  C       1.450823      0.819068      1.161075
  O       1.011856      1.698009      2.106878
  C       1.957073      2.377325      2.921494
  C       0.466606      0.209503      0.374478
  S      -1.301268      0.849754      0.522219
  C      -2.137873     -0.752086      0.812769
  C      -3.402183     -0.952550      0.270186
  C      -4.096292     -2.125777      0.564631
  C      -3.536977     -3.083474      1.409929
  C      -2.274831     -2.863748      1.962411
  C      -1.570390     -1.698540      1.663877
  C      -2.004817      1.568016     -0.813538
  C      -1.954333      1.262093     -2.305645
  C      -2.400109      2.739068     -2.532111
  C      -2.024896      3.080355     -1.054788
  C       0.867670     -0.702309     -0.618607
  O      -0.130101     -1.254085     -1.356486
  C       0.195173     -2.197580     -2.369827
  C       2.212998     -1.016125     -0.803089
  H       5.421753     -0.403207      1.567539
  H       6.434559     -0.607017      0.116447
  H       5.537285      0.913037      0.359550
  H       3.558655      0.984770      1.609557
  H       2.536193      1.677532      3.534171
  H       1.370965      3.024159      3.572684
  H       2.637568      2.990451      2.320565
  H      -3.823225     -0.184006     -0.368029
  H      -5.077816     -2.289519      0.132454
  H      -4.081720     -3.992446      1.640595
  H      -1.834972     -3.600127      2.626478
  H      -0.584149     -1.534162      2.082487
  H      -0.944746      1.075923     -2.698919
  H      -2.615507      0.479454     -2.693405
  H      -3.474100      2.821361     -2.710167
  H      -1.864906      3.294322     -3.305340
  H      -1.050160      3.585986     -1.001017
  H      -2.749478      3.672565     -0.486405
  H       0.822005     -1.747275     -3.147151
  H       0.701656     -3.073084     -1.950497
  H      -0.755807     -2.501979     -2.803793
  H       2.546783     -1.718128     -1.553599
45
Coordinates from ORCA-job file E -1360.591918139023
  C       5.510505     -0.166949      0.490670
  O       4.460532     -0.765938     -0.257631
  C       3.172148     -0.398584     -0.000515
  C       2.809724      0.519600      0.985401
  C       1.449214      0.818476      1.161183
  O       1.010604      1.696808      2.107578
  C       1.956398      2.377029      2.921071
  C       0.463586      0.207421      0.377225
  S      -1.302164      0.846372      0.526955
  C      -2.139942     -0.754556      0.815383
  C      -3.398466     -0.959023      0.261778
  C      -4.093470     -2.132492      0.555082
  C      -3.540639     -3.085263      1.409681
  C      -2.284172     -2.860624      1.973556
  C      -1.578995     -1.695673      1.676973
  C      -2.005090      1.565281     -0.809431
  C      -1.945605      1.261111     -2.301995
  C      -2.389786      2.737998     -2.528364
  C      -2.017228      3.077710     -1.050803
  C       0.864473     -0.703701     -0.617085
  O      -0.134038     -1.258046     -1.351786
  C       0.191445     -2.195902     -2.370554
  C       2.209744     -1.015737     -0.804176
  H       5.423255     -0.396517      1.558367
  H       6.432540     -0.599123      0.104644
  H       5.532679      0.919164      0.349381
  H       3.557688      0.987804      1.605185
  H       2.537738      1.677474      3.531832
  H       1.370354      3.022235      3.573831
  H       2.634664      2.991562      2.319146
  H      -3.815726     -0.194786     -0.383890
  H      -5.070732     -2.299287      0.114475
  H      -4.086162     -3.994104      1.639011
  H      -1.849110     -3.592862      2.645359
  H      -0.597349     -1.527001      2.104564
  H      -0.933483      1.075578     -2.689260
  H      -2.603086      0.478439     -2.696053
  H      -3.464013      2.819679     -2.705647
  H      -1.856586      3.294130     -3.302335
  H      -1.040263      3.578761     -0.992408
  H      -2.740522      3.673900     -0.484777
  H       0.817806     -1.740684     -3.145247
  H       0.698506     -3.073355     -1.956059
  H      -0.759604     -2.498467     -2.805504
  H       2.542927     -1.717959     -1.554710
45
Coordinates from ORCA-job file E -1360.591924907333
  C       5.506999     -0.164496      0.484277
  O       4.455833     -0.765177     -0.261161
  C       3.167923     -0.397965     -0.002183
  C       2.807018      0.521632      0.983098
  C       1.446790      0.819839      1.161163
  O       1.009457      1.699401      2.107046
  C       1.956489      2.381381      2.917831
  C       0.459378      0.207352      0.380285
  S      -1.304870      0.844510      0.531461
  C      -2.141399     -0.756949      0.817035
  C      -3.395991     -0.965305      0.256281
  C      -4.089651     -2.140370      0.547704
  C      -3.538969     -3.089948      1.406850
  C      -2.286163     -2.861106      1.977401
  C      -1.582282     -1.694886      1.683507
  C      -2.007707      1.564189     -0.805694
  C      -1.936250      1.262210     -2.298461
  C      -2.377692      2.739475     -2.525522
  C      -2.012765      3.076938     -1.046165
  C       0.859378     -0.705107     -0.613755
  O      -0.140233     -1.260596     -1.346013
  C       0.184011     -2.195321     -2.368197
  C       2.204290     -1.017018     -0.802993
  H       5.422058     -0.392857      1.552403
  H       6.428549     -0.596431      0.096902
  H       5.527928      0.921437      0.341611
  H       3.555860      0.991236      1.600732
  H       2.539348      1.682888      3.528334
  H       1.371296      3.027067      3.570841
  H       2.633163      2.995386      2.313626
  H      -3.810869     -0.202973     -0.393024
  H      -5.064049     -2.310285      0.101985
  H      -4.083152     -3.999973      1.634696
  H      -1.852925     -3.591250      2.652702
  H      -0.603572     -1.522891      2.116469
  H      -0.921217      1.076904     -2.678400
  H      -2.590536      0.480218     -2.699286
  H      -3.451075      2.822236     -2.707413
  H      -1.841530      3.295775     -3.297434
  H      -1.034453      3.574416     -0.979842
  H      -2.737787      3.675358     -0.484587
  H       0.811505     -1.738274     -3.140786
  H       0.689260     -3.075195     -1.956556
  H      -0.767517     -2.494798     -2.804173
  H       2.536423     -1.720778     -1.552492
45
Coordinates from ORCA-job file E -1360.591927170559
  C       5.504720     -0.163400      0.480724
  O       4.452831     -0.765348     -0.262662
  C       3.165144     -0.398050     -0.003054
  C       2.805235      0.523438      0.980854
  C       1.445256      0.821723      1.160053
  O       1.008944      1.703014      2.104963
  C       1.956797      2.387339      2.912849
  C       0.456710      0.207612      0.381769
  S      -1.307279      0.842633      0.534091
  C      -2.142298     -0.759962      0.816935
  C      -3.394188     -0.971039      0.251139
  C      -4.086805     -2.147229      0.540697
  C      -3.537626     -3.094800      1.402894
  C      -2.287671     -2.863064      1.978446
  C      -1.584621     -1.695808      1.686733
  C      -2.011153      1.564282     -0.802181
  C      -1.931750      1.265167     -2.295206
  C      -2.369945      2.743383     -2.521507
  C      -2.009077      3.077624     -1.040721
  C       0.856043     -0.706575     -0.611257
  O      -0.144220     -1.263724     -1.341332
  C       0.179102     -2.197905     -2.364279
  C       2.200671     -1.018860     -0.801555
  H       5.420899     -0.390198      1.549285
  H       6.425974     -0.595760      0.093097
  H       5.525279      0.922320      0.336338
  H       3.554627      0.994567      1.596635
  H       2.540858      1.690483      3.524090
  H       1.372236      3.034178      3.565310
  H       2.632242      3.000362      2.306276
  H      -3.806559     -0.209008     -0.400129
  H      -5.059073     -2.319468      0.091244
  H      -4.080671     -4.005789      1.629643
  H      -1.856166     -3.592030      2.656153
  H      -0.608189     -1.521715      2.123908
  H      -0.914771      1.080088     -2.670262
  H      -2.584663      0.484659     -2.701157
  H      -3.442637      2.828456     -2.706369
  H      -1.830819      3.299577     -3.291544
  H      -1.028880      3.570761     -0.969936
  H      -2.733952      3.678305     -0.481343
  H       0.807142     -1.740927     -3.136436
  H       0.683303     -3.078710     -1.953229
  H      -0.772792     -2.496201     -2.800292
  H       2.532094     -1.724503     -1.549574
45
Coordinates from ORCA-job file E -1360.591927289532
  C       5.502914     -0.164550      0.480512
  O       4.450655     -0.766543     -0.262200
  C       3.163095     -0.398652     -0.002898
  C       2.803780      0.524370      0.979744
  C       1.444029      0.823541      1.159031
  O       1.008564      1.706526      2.102866
  C       1.956996      2.392354      2.908704
  C       0.454974      0.208568      0.382098
  S      -1.309425      0.842099      0.535457
  C      -2.142682     -0.761618      0.816496
  C      -3.393593     -0.974669      0.249037
  C      -4.084584     -2.151962      0.537263
  C      -3.534753     -3.098869      1.399892
  C      -2.285929     -2.865354      1.976987
  C      -1.584347     -1.696789      1.686594
  C      -2.015409      1.564992     -0.800021
  C      -1.930415      1.267956     -2.293297
  C      -2.366188      2.746963     -2.519330
  C      -2.007076      3.078881     -1.037556
  C       0.853699     -0.707157     -0.609798
  O      -0.146925     -1.264863     -1.338996
  C       0.175604     -2.199898     -2.361304
  C       2.198120     -1.020273     -0.800195
  H       5.418923     -0.390191      1.549325
  H       6.423923     -0.597943      0.093406
  H       5.524259      0.921015      0.334927
  H       3.553477      0.996392      1.594479
  H       2.541221      1.696735      3.521224
  H       1.372993      3.040783      3.560132
  H       2.632258      3.003992      2.300509
  H      -3.805220     -0.212040     -0.402102
  H      -5.055963     -2.325883      0.086549
  H      -4.076266     -4.010935      1.625999
  H      -1.854473     -3.594110      2.654948
  H      -0.608787     -1.521514      2.125231
  H      -0.911858      1.083689     -2.664515
  H      -2.582289      0.488496     -2.702797
  H      -3.438453      2.833867     -2.705769
  H      -1.824723      3.302790     -3.288040
  H      -1.024827      3.567672     -0.965556
  H      -2.730575      3.682000     -0.479125
  H       0.804045     -1.744072     -3.133837
  H       0.678987     -3.080944     -1.949694
  H      -0.776557     -2.497730     -2.797104
  H       2.529102     -1.727220     -1.547176
45
Coordinates from ORCA-job file E -1360.591927365053
  C       5.502444     -0.166328      0.482332
  O       4.450340     -0.767482     -0.261180
  C       3.162745     -0.399052     -0.002646
  C       2.803336      0.524362      0.979518
  C       1.443629      0.824312      1.158114
  O       1.008282      1.707848      2.101524
  C       1.956682      2.394079      2.906954
  C       0.454813      0.209326      0.380972
  S      -1.310336      0.842452      0.535126
  C      -2.142527     -0.761889      0.815975
  C      -3.393559     -0.975885      0.248902
  C      -4.083557     -2.153577      0.536963
  C      -3.532813     -3.100346      1.399365
  C      -2.284095     -2.866043      1.976224
  C      -1.583442     -1.696835      1.685731
  C      -2.018615      1.565555     -0.799353
  C      -1.932578      1.269365     -2.292870
  C      -2.366763      2.748935     -2.518717
  C      -2.006407      3.079707     -1.036784
  C       0.853423     -0.706717     -0.610512
  O      -0.147083     -1.264329     -1.340009
  C       0.175360     -2.200886     -2.360851
  C       2.197838     -1.020393     -0.800233
  H       5.417365     -0.391768      1.551113
  H       6.423420     -0.600578      0.096065
  H       5.524949      0.919217      0.336630
  H       3.552940      0.996347      1.594417
  H       2.540486      1.698921      3.520423
  H       1.372750      3.043410      3.557580
  H       2.632388      3.004935      2.298443
  H      -3.805552     -0.212902     -0.401683
  H      -5.054898     -2.328280      0.086471
  H      -4.073514     -4.012864      1.625582
  H      -1.852214     -3.594705      2.653994
  H      -0.607919     -1.521114      2.124283
  H      -0.913467      1.085455     -2.662668
  H      -2.584501      0.490616     -2.703501
  H      -3.439010      2.837085     -2.704645
  H      -1.824443      3.304281     -3.287139
  H      -1.022497      3.565369     -0.966496
  H      -2.727696      3.684784     -0.477728
  H       0.803775     -1.746342     -3.134210
  H       0.678740     -3.081357     -1.948005
  H      -0.776796     -2.499297     -2.796308
  H       2.528876     -1.727490     -1.547064
