14
Coordinates from ORCA-job file
  C   -0.61112648792813      1.06857082148827     -0.62872499033494
  N   -1.78108438216474      0.22956394161332     -0.25128948118388
  C   -0.92160009271415     -0.71733613456266      0.50291333750215
  C   0.30494743685510     -0.03748848564112     -0.11050558449250
  C   1.70115939408508     -0.02210245007178      0.36231995321772
  N   1.33533479576034     -0.66790294284030     -0.91256952480428
  H   -0.53967956194402      1.27574780011106     -1.70140632417310
  H   -0.52009209714104      2.00528805863660     -0.06110494011581
  H   -2.47871513238625      0.70332297393429      0.31091600481756
  H   -1.08092226914770     -1.76936196692976      0.23361365622302
  H   -0.97128690375509     -0.61254031930839      1.59620221758756
  H   2.30564651198292      0.87695601281072      0.25985533396530
  H   1.95412775470163     -0.65297005729291      1.21429722046399
  H   1.30339103379605     -1.67994725194734     -0.81441687867280
