14
Coordinates from ORCA-job file E -266.773785669302
  C      -0.582100      1.040100     -0.606800
  N      -1.776300      0.242100     -0.256900
  C      -0.922400     -0.731500      0.455100
  C       0.297700      0.068500      0.109800
  C       1.731200      0.016200      0.359700
  N       1.188700     -0.638600     -0.843000
  H      -0.430700      1.073200     -1.708500
  H      -0.583300      2.041700     -0.121200
  H      -2.335500      0.774400      0.451900
  H      -0.985300     -1.734100     -0.021300
  H      -1.116600     -0.743600      1.551000
  H       2.278400      0.951600      0.121400
  H       2.040500     -0.692600      1.159000
  H       1.195800     -1.667600     -0.650100
14
Coordinates from ORCA-job file E -266.786459635447
  C      -0.595207      1.064165     -0.611552
  N      -1.794505      0.243816     -0.253606
  C      -0.941981     -0.737288      0.481264
  C       0.300656      0.054123      0.086959
  C       1.751629     -0.001538      0.350580
  N       1.217430     -0.644367     -0.853801
  H      -0.429436      1.113969     -1.692701
  H      -0.610054      2.061824     -0.149407
  H      -2.355527      0.757808      0.421087
  H      -0.993261     -1.739424      0.038605
  H      -1.152588     -0.760520      1.560557
  H       2.319672      0.906281      0.148684
  H       2.075566     -0.669625      1.150060
  H       1.207707     -1.649424     -0.676630
14
Coordinates from ORCA-job file E -266.791183775220
  C      -0.603081      1.070384     -0.614124
  N      -1.798217      0.238853     -0.255185
  C      -0.941886     -0.731324      0.494017
  C       0.303311      0.038594      0.050670
  C       1.749901     -0.012584      0.347582
  N       1.238696     -0.644972     -0.870117
  H      -0.433850      1.144730     -1.691458
  H      -0.619715      2.065661     -0.152257
  H      -2.378759      0.748700      0.402881
  H      -0.993317     -1.746852      0.086247
  H      -1.146878     -0.747049      1.572460
  H       2.339422      0.886304      0.181482
  H       2.074085     -0.659861      1.161705
  H       1.210387     -1.650784     -0.713802
14
Coordinates from ORCA-job file E -266.794128642430
  C      -0.607591      1.070337     -0.618028
  N      -1.797026      0.233269     -0.256914
  C      -0.935868     -0.724535      0.500471
  C       0.305631      0.023321      0.013512
  C       1.741111     -0.018790      0.350804
  N       1.259197     -0.645809     -0.884515
  H      -0.448916      1.171269     -1.695559
  H      -0.613310      2.059012     -0.141043
  H      -2.398644      0.739018      0.384217
  H      -1.001275     -1.753357      0.126384
  H      -1.116686     -0.718537      1.583806
  H       2.342587      0.877507      0.210839
  H       2.052343     -0.658787      1.176593
  H       1.218547     -1.654116     -0.750468
14
Coordinates from ORCA-job file E -266.796233879274
  C      -0.610008      1.069012     -0.621657
  N      -1.794419      0.229216     -0.258067
  C      -0.930294     -0.719904      0.503189
  C       0.306955      0.007221     -0.022046
  C       1.730874     -0.021733      0.355217
  N       1.280552     -0.649020     -0.895395
  H      -0.470423      1.198003     -1.699177
  H      -0.595942      2.046692     -0.122417
  H      -2.418991      0.729437      0.365010
  H      -1.017375     -1.759082      0.161827
  H      -1.078514     -0.685876      1.591015
  H       2.337381      0.873813      0.233178
  H       2.025139     -0.658796      1.189348
  H       1.235164     -1.659185     -0.779925
14
Coordinates from ORCA-job file E -266.797674641192
  C      -0.611209      1.067794     -0.624472
  N      -1.790846      0.226935     -0.258313
  C      -0.926128     -0.717282      0.503611
  C       0.307416     -0.009581     -0.056280
  C       1.720164     -0.022718      0.359022
  N       1.301536     -0.654674     -0.903817
  H      -0.495044      1.226359     -1.701177
  H      -0.571786      2.031422     -0.099178
  H      -2.440044      0.719389      0.345023
  H      -1.038626     -1.764065      0.193351
  H      -1.038440     -0.652978      1.594660
  H       2.327802      0.873538      0.248388
  H       1.997471     -0.658249      1.200101
  H       1.257831     -1.666089     -0.800820
14
Coordinates from ORCA-job file E -266.798463928760
  C      -0.611604      1.067214     -0.626456
  N      -1.786021      0.225943     -0.257628
  C      -0.922829     -0.715788      0.503354
  C       0.307248     -0.026542     -0.089403
  C       1.709036     -0.022926      0.361573
  N       1.321460     -0.661994     -0.910843
  H      -0.520342      1.256823     -1.700770
  H      -0.544049      2.014344     -0.073838
  H      -2.462483      0.708385      0.323184
  H      -1.062107     -1.767743      0.222673
  H      -0.998358     -0.621930      1.595788
  H       2.315964      0.874507      0.258146
  H       1.970860     -0.656393      1.208980
  H       1.283324     -1.674100     -0.814661
14
Coordinates from ORCA-job file E -266.798625793588
  C      -0.611470      1.068165     -0.627087
  N      -1.781591      0.225638     -0.256859
  C      -0.921040     -0.715364      0.503866
  C       0.306317     -0.036607     -0.109268
  C       1.702353     -0.023333      0.361647
  N       1.333450     -0.667455     -0.914331
  H      -0.535978      1.279034     -1.698769
  H      -0.525413      2.003462     -0.056433
  H      -2.479329      0.699387      0.305226
  H      -1.077343     -1.769585      0.241385
  H      -0.973483     -0.604007      1.596327
  H       2.308559      0.874770      0.260508
  H       1.955649     -0.654618      1.213214
  H       1.299417     -1.679687     -0.819325
14
Coordinates from ORCA-job file E -266.798632406130
  C      -0.611461      1.068125     -0.628596
  N      -1.781437      0.228629     -0.252517
  C      -0.921355     -0.716705      0.502833
  C       0.305659     -0.037349     -0.110556
  C       1.701493     -0.022474      0.362494
  N       1.335300     -0.667715     -0.912952
  H      -0.539296      1.276441     -1.701057
  H      -0.521669      2.004219     -0.059823
  H      -2.478759      0.702603      0.310119
  H      -1.080198     -1.769373      0.235575
  H      -0.971274     -0.609498      1.595828
  H       2.306484      0.876326      0.260588
  H       1.954031     -0.653559      1.214467
  H       1.302584     -1.679871     -0.816305
14
Coordinates from ORCA-job file E -266.798633898245
  C      -0.611126      1.068571     -0.628725
  N      -1.781084      0.229564     -0.251289
  C      -0.921600     -0.717336      0.502913
  C       0.304947     -0.037488     -0.110506
  C       1.701159     -0.022102      0.362320
  N       1.335335     -0.667903     -0.912570
  H      -0.539680      1.275748     -1.701406
  H      -0.520092      2.005288     -0.061105
  H      -2.478715      0.703323      0.310916
  H      -1.080922     -1.769362      0.233614
  H      -0.971287     -0.612540      1.596202
  H       2.305647      0.876956      0.259855
  H       1.954128     -0.652970      1.214297
  H       1.303391     -1.679947     -0.814417
