35
Coordinates from ORCA-job file E -1203.870196557675
  C      -4.080100     -2.130900      0.950400
  O      -3.627300     -1.095800      0.083600
  C      -2.437100     -0.373900      0.261500
  C      -1.565400     -0.611200      1.338600
  C      -0.380600      0.135300      1.477700
  O       0.507200     -0.072800      2.546000
  C       0.334800     -1.053500      3.563600
  C      -0.069400      1.119300      0.524100
  S       1.453300      2.067900      0.682200
  C       2.403900      0.899200     -0.292400
  C       3.058800     -0.169700      0.333800
  C       3.794900     -1.083200     -0.427400
  C       3.883800     -0.927700     -1.814200
  C       3.239300      0.143700     -2.440500
  C       2.502700      1.058300     -1.681100
  C      -0.939800      1.371600     -0.549400
  O      -0.602500      2.375800     -1.471300
  C      -1.375000      2.713600     -2.618400
  C      -2.119600      0.615700     -0.672400
  H      -3.341200     -2.959500      0.974400
  H      -5.044300     -2.526000      0.570100
  H      -4.239400     -1.729800      1.973600
  H      -1.808700     -1.371700      2.065300
  H       1.190800     -0.999300      4.266800
  H      -0.601400     -0.858100      4.127900
  H       0.308000     -2.068700      3.114500
  H       2.998100     -0.294700      1.407100
  H       4.297000     -1.910400      0.057400
  H       4.453800     -1.635000     -2.402600
  H       3.311500      0.265800     -3.513500
  H       2.010000      1.887000     -2.172800
  H      -2.382500      3.064900     -2.310600
  H      -1.463800      1.834300     -3.290800
  H      -0.866600      3.531300     -3.168900
  H      -2.803300      0.788300     -1.492400
35
Coordinates from ORCA-job file E -1203.886072450929
  C      -4.037782     -2.017727      1.014545
  O      -3.644433     -1.016630      0.103752
  C      -2.471802     -0.344237      0.282629
  C      -1.609566     -0.603394      1.355157
  C      -0.416630      0.123702      1.474843
  O       0.455987     -0.096906      2.496461
  C       0.187907     -1.089555      3.459689
  C      -0.077961      1.101547      0.527533
  S       1.464645      2.019077      0.672329
  C       2.465519      0.889710     -0.309282
  C       3.139359     -0.171705      0.308909
  C       3.904957     -1.056004     -0.457389
  C       4.006135     -0.879633     -1.840916
  C       3.342614      0.185795     -2.457511
  C       2.576504      1.071896     -1.693896
  C      -0.959032      1.353007     -0.536970
  O      -0.605220      2.307557     -1.439718
  C      -1.435127      2.583513     -2.545163
  C      -2.151206      0.630089     -0.661676
  H      -3.302062     -2.843056      1.040903
  H      -5.002247     -2.413627      0.667897
  H      -4.167684     -1.602343      2.031334
  H      -1.863323     -1.365159      2.090592
  H       1.027913     -1.089801      4.167717
  H      -0.743807     -0.866853      4.012065
  H       0.114727     -2.088848      2.991515
  H       3.059421     -0.311871      1.387426
  H       4.425459     -1.885630      0.027014
  H       4.604883     -1.571237     -2.438677
  H       3.423078      0.327609     -3.537876
  H       2.057544      1.900825     -2.176424
  H      -2.426280      2.947419     -2.217219
  H      -1.558608      1.688892     -3.183038
  H      -0.943459      3.372562     -3.130512
  H      -2.840521      0.811113     -1.486143
35
Coordinates from ORCA-job file E -1203.887331775795
  C      -4.084300     -1.971742      1.046789
  O      -3.679455     -0.991334      0.122049
  C      -2.502849     -0.350026      0.309376
  C      -1.648507     -0.613307      1.388187
  C      -0.442029      0.098093      1.496077
  O       0.435930     -0.118403      2.499359
  C       0.149952     -1.093454      3.472279
  C      -0.086964      1.066763      0.541276
  S       1.455471      1.969081      0.685186
  C       2.481782      0.884154     -0.321834
  C       3.156877     -0.191944      0.268647
  C       3.945562     -1.037824     -0.516607
  C       4.065804     -0.811343     -1.891296
  C       3.397140      0.266798     -2.479579
  C       2.608175      1.115380     -1.697678
  C      -0.962955      1.309796     -0.535572
  O      -0.572426      2.231870     -1.440450
  C      -1.397004      2.507012     -2.547739
  C      -2.167563      0.605951     -0.653378
  H      -3.367938     -2.811988      1.090578
  H      -5.054083     -2.350753      0.697863
  H      -4.210351     -1.550015      2.060443
  H      -1.913217     -1.360659      2.129283
  H       0.999761     -1.096981      4.167656
  H      -0.769383     -0.851999      4.035465
  H       0.049313     -2.099018      3.025611
  H       3.053182     -0.369033      1.340963
  H       4.469425     -1.878584     -0.052595
  H       4.682727     -1.474549     -2.504459
  H       3.490922      0.448556     -3.554162
  H       2.078122      1.954003     -2.153053
  H      -2.379259      2.904406     -2.235880
  H      -1.550222      1.610911     -3.175043
  H      -0.876744      3.271789     -3.139532
  H      -2.854994      0.778494     -1.478330
35
Coordinates from ORCA-job file E -1203.887589522838
  C      -4.119646     -1.958350      1.082996
  O      -3.705982     -0.988085      0.150312
  C      -2.519866     -0.359694      0.328715
  C      -1.660743     -0.619930      1.404174
  C      -0.446475      0.082950      1.493930
  O       0.442346     -0.128962      2.489430
  C       0.157860     -1.083671      3.483587
  C      -0.092571      1.044410      0.528457
  S       1.442611      1.949112      0.663604
  C       2.487145      0.881547     -0.342863
  C       3.103029     -0.238964      0.229867
  C       3.913559     -1.066277     -0.552381
  C       4.115341     -0.776992     -1.905609
  C       3.505244      0.344857     -2.475505
  C       2.694027      1.175133     -1.697078
  C      -0.975662      1.280898     -0.548505
  O      -0.579739      2.192498     -1.462126
  C      -1.411448      2.473990     -2.563365
  C      -2.185614      0.585044     -0.648697
  H      -3.416137     -2.809200      1.131160
  H      -5.096339     -2.325083      0.739178
  H      -4.235246     -1.532984      2.096373
  H      -1.925417     -1.357347      2.154866
  H       1.017705     -1.082513      4.167078
  H      -0.751409     -0.825563      4.055834
  H       0.039049     -2.097230      3.059901
  H       2.932695     -0.460874      1.285236
  H       4.391657     -1.941095     -0.102245
  H       4.750181     -1.425290     -2.516114
  H       3.662516      0.575760     -3.533057
  H       2.206882      2.048334     -2.134373
  H      -2.388014      2.881889     -2.247034
  H      -1.582602      1.579723     -3.188674
  H      -0.886442      3.232059     -3.160195
  H      -2.882597      0.750000     -1.466976
35
Coordinates from ORCA-job file E -1203.887763159889
  C      -4.236861     -1.890475      1.139225
  O      -3.733888     -0.988268      0.180335
  C      -2.526657     -0.402382      0.384371
  C      -1.726169     -0.634688      1.508754
  C      -0.487169      0.025305      1.608983
  O       0.356822     -0.163045      2.651029
  C      -0.009091     -1.029142      3.699842
  C      -0.057502      0.924143      0.609902
  S       1.477710      1.802999      0.774214
  C       2.503303      0.873687     -0.376572
  C       3.083359     -0.338504      0.022095
  C       3.891579     -1.049965     -0.867826
  C       4.131222     -0.551952     -2.152700
  C       3.555934      0.659559     -2.548014
  C       2.742498      1.373072     -1.663657
  C      -0.886676      1.127035     -0.522583
  O      -0.407032      1.967953     -1.465822
  C      -1.179483      2.230191     -2.615559
  C      -2.116015      0.472209     -0.633551
  H      -3.579569     -2.769865      1.268172
  H      -5.213455     -2.229040      0.765473
  H      -4.378204     -1.413667      2.126397
  H      -2.050505     -1.317512      2.287620
  H       0.826052     -1.015384      4.414169
  H      -0.925976     -0.693902      4.218098
  H      -0.164469     -2.066103      3.350066
  H       2.881878     -0.713056      1.027257
  H       4.342393     -1.995392     -0.553770
  H       4.767118     -1.108410     -2.846093
  H       3.740044      1.051806     -3.551963
  H       2.274945      2.313775     -1.958384
  H      -2.152826      2.689618     -2.365482
  H      -1.366524      1.316274     -3.207593
  H      -0.596669      2.937335     -3.222229
  H      -2.780217      0.605890     -1.484302
35
Coordinates from ORCA-job file E -1203.888157522801
  C      -4.270971     -1.870893      1.194796
  O      -3.733422     -1.014168      0.213078
  C      -2.520122     -0.439070      0.421691
  C      -1.749979     -0.636841      1.571820
  C      -0.502339      0.007224      1.671870
  O       0.315400     -0.152615      2.741076
  C      -0.094538     -0.957030      3.822197
  C      -0.036254      0.859039      0.647972
  S       1.496975      1.732588      0.816857
  C       2.503896      0.885470     -0.409740
  C       2.930968     -0.430082     -0.179344
  C       3.730926     -1.077589     -1.123235
  C       4.118148     -0.412786     -2.291617
  C       3.697052      0.901018     -2.517549
  C       2.888171      1.550715     -1.581389
  C      -0.839097      1.027512     -0.511097
  O      -0.324223      1.822199     -1.476257
  C      -1.065425      2.045578     -2.654659
  C      -2.073346      0.385829     -0.623312
  H      -3.629902     -2.754028      1.373118
  H      -5.244909     -2.209575      0.814012
  H      -4.424312     -1.354823      2.160516
  H      -2.102001     -1.282288      2.370954
  H       0.722689     -0.924708      4.556450
  H      -1.017349     -0.578345      4.298887
  H      -0.265487     -2.007274      3.521676
  H       2.618099     -0.928140      0.740150
  H       4.061901     -2.103484     -0.941104
  H       4.749217     -0.919244     -3.026093
  H       3.995918      1.422942     -3.430495
  H       2.535449      2.570085     -1.743410
  H      -2.041791      2.520023     -2.447226
  H      -1.246748      1.110299     -3.214626
  H      -0.462285      2.723836     -3.274357
  H      -2.720404      0.488727     -1.491708
35
Coordinates from ORCA-job file E -1203.888736930692
  C      -4.223522     -1.902824      1.234370
  O      -3.696325     -1.070210      0.229366
  C      -2.493596     -0.471004      0.428474
  C      -1.739147     -0.630126      1.593237
  C      -0.501348      0.028457      1.698540
  O       0.294055     -0.101773      2.788099
  C      -0.133947     -0.884402      3.875744
  C      -0.026163      0.851718      0.663038
  S       1.504846      1.739944      0.832832
  C       2.488320      0.913056     -0.421830
  C       2.718983     -0.467772     -0.339560
  C       3.495330     -1.103294     -1.310446
  C       4.059238     -0.361941     -2.354747
  C       3.839587      1.016472     -2.428660
  C       3.047438      1.654111     -1.469885
  C      -0.815235      0.992340     -0.503644
  O      -0.304305      1.777040     -1.477590
  C      -1.021867      1.945115     -2.677598
  C      -2.037020      0.330953     -0.625702
  H      -3.562151     -2.764778      1.441389
  H      -5.188458     -2.274869      0.864209
  H      -4.390100     -1.351911      2.178763
  H      -2.096600     -1.260018      2.403074
  H       0.659315     -0.827793      4.633142
  H      -1.074573     -0.500743      4.312196
  H      -0.282497     -1.942698      3.590973
  H       2.282037     -1.026694      0.491141
  H       3.671440     -2.180297     -1.245930
  H       4.672557     -0.859598     -3.110208
  H       4.276471      1.597519     -3.245173
  H       2.846181      2.725374     -1.523159
  H      -2.015106      2.396033     -2.500574
  H      -1.158366      0.985530     -3.208425
  H      -0.427335      2.620906     -3.306664
  H      -2.668238      0.408277     -1.508889
35
Coordinates from ORCA-job file E -1203.889158490399
  C      -4.238868     -1.898645      1.273888
  O      -3.676141     -1.111925      0.251434
  C      -2.474665     -0.514473      0.459702
  C      -1.752970     -0.631543      1.650885
  C      -0.511992      0.021143      1.763195
  O       0.255941     -0.070800      2.875343
  C      -0.204874     -0.799816      3.986219
  C      -0.002336      0.796228      0.708491
  S       1.531640      1.675941      0.879458
  C       2.477002      0.925326     -0.446022
  C       2.537018     -0.470119     -0.574054
  C       3.286294     -1.043367     -1.602264
  C       3.997642     -0.229731     -2.491757
  C       3.948843      1.160041     -2.354196
  C       3.179712      1.739728     -1.341274
  C      -0.759740      0.899487     -0.482322
  O      -0.213368      1.644807     -1.466275
  C      -0.884586      1.767519     -2.697756
  C      -1.982457      0.241021     -0.613182
  H      -3.590827     -2.755477      1.535764
  H      -5.195250     -2.279395      0.890817
  H      -4.429253     -1.307806      2.188922
  H      -2.136475     -1.224722      2.475406
  H       0.570243     -0.714125      4.759431
  H      -1.152606     -0.390010      4.381136
  H      -0.354320     -1.869069      3.747089
  H       1.992826     -1.090426      0.141993
  H       3.328060     -2.131366     -1.702520
  H       4.590341     -0.680501     -3.292063
  H       4.498306      1.798740     -3.051167
  H       3.104863      2.824484     -1.238393
  H      -1.880675      2.230083     -2.576611
  H      -1.006208      0.787663     -3.193728
  H      -0.262043      2.413882     -3.330397
  H      -2.589179      0.287322     -1.515293
35
Coordinates from ORCA-job file E -1203.889533029430
  C      -4.232779     -1.930281      1.303329
  O      -3.651226     -1.173357      0.268548
  C      -2.461727     -0.560562      0.481931
  C      -1.758265     -0.633790      1.691372
  C      -0.523387      0.032417      1.805292
  O       0.229285     -0.008931      2.926965
  C      -0.233016     -0.706048      4.057455
  C      -0.000262      0.771824      0.732637
  S       1.540088      1.642566      0.891629
  C       2.457907      0.930633     -0.466858
  C       2.345814     -0.429974     -0.788840
  C       3.083934     -0.958258     -1.847291
  C       3.959934     -0.143086     -2.574268
  C       4.081591      1.208272     -2.242682
  C       3.323778      1.749279     -1.199960
  C      -0.741027      0.844174     -0.469545
  O      -0.181572      1.572545     -1.454344
  C      -0.811150      1.648456     -2.710751
  C      -1.957164      0.169333     -0.603852
  H      -3.587216     -2.773121      1.609561
  H      -5.175631     -2.331079      0.907275
  H      -4.453757     -1.310830      2.191237
  H      -2.150626     -1.200890      2.527726
  H       0.532760     -0.578303      4.834390
  H      -1.190906     -0.299302      4.428764
  H      -0.358036     -1.785579      3.856381
  H       1.677160     -1.065200     -0.204428
  H       2.987200     -2.018231     -2.100064
  H       4.542468     -0.561333     -3.400011
  H       4.756972      1.852895     -2.812906
  H       3.382015      2.815401     -0.961328
  H      -1.812859      2.108577     -2.640879
  H      -0.905699      0.652444     -3.178626
  H      -0.168881      2.278739     -3.339884
  H      -2.545819      0.190698     -1.518078
35
Coordinates from ORCA-job file E -1203.889490655449
  C      -4.209029     -1.979951      1.294408
  O      -3.654608     -1.192930      0.265937
  C      -2.481442     -0.555649      0.474140
  C      -1.754562     -0.628093      1.674490
  C      -0.532828      0.065106      1.778786
  O       0.241136      0.037971      2.881746
  C      -0.171115     -0.692924      4.011256
  C      -0.041905      0.823421      0.702060
  S       1.504872      1.690691      0.834781
  C       2.447607      0.914399     -0.465317
  C       2.343878     -0.453260     -0.759664
  C       3.116953     -1.008154     -1.778018
  C       4.019890     -0.216772     -2.498616
  C       4.131497      1.141632     -2.195500
  C       3.343326      1.709170     -1.189748
  C      -0.807341      0.907010     -0.483246
  O      -0.281208      1.667889     -1.457564
  C      -0.910954      1.734291     -2.714600
  C      -2.013500      0.205786     -0.607323
  H      -3.545458     -2.814580      1.580795
  H      -5.145327     -2.394146      0.895876
  H      -4.440419     -1.381085      2.192696
  H      -2.120388     -1.211553      2.509916
  H       0.610658     -0.549193      4.769776
  H      -1.130879     -0.325710      4.415518
  H      -0.260405     -1.772677      3.796764
  H       1.653323     -1.081500     -0.195247
  H       3.022688     -2.074102     -2.008122
  H       4.626627     -0.657192     -3.295397
  H       4.827454      1.772148     -2.757593
  H       3.403530      2.783981     -0.987143
  H      -1.921970      2.173161     -2.647454
  H      -0.977952      0.740296     -3.190232
  H      -0.279055      2.383902     -3.335012
  H      -2.613193      0.238719     -1.513247
35
Coordinates from ORCA-job file E -1203.890004939461
  C      -4.228710     -1.956763      1.366974
  O      -3.671433     -1.205243      0.313968
  C      -2.488151     -0.574326      0.502930
  C      -1.765385     -0.626613      1.702282
  C      -0.537950      0.055026      1.791999
  O       0.227031      0.043232      2.904970
  C      -0.203691     -0.664352      4.042864
  C      -0.037663      0.786052      0.699567
  S       1.505389      1.656144      0.825201
  C       2.449421      0.929320     -0.501107
  C       2.240173     -0.380303     -0.959930
  C       3.033935     -0.895777     -1.983689
  C       4.058436     -0.126289     -2.548626
  C       4.274990      1.171765     -2.080807
  C       3.467035      1.703918     -1.071892
  C      -0.804895      0.850696     -0.488413
  O      -0.278503      1.585453     -1.485548
  C      -0.903035      1.603655     -2.747492
  C      -2.013197      0.156664     -0.595767
  H      -3.569999     -2.789693      1.673182
  H      -5.172745     -2.372318      0.988396
  H      -4.444718     -1.329124      2.250725
  H      -2.140310     -1.186980      2.553417
  H       0.568206     -0.514534      4.810141
  H      -1.167252     -0.282631      4.426313
  H      -0.301112     -1.747478      3.844527
  H       1.454050     -0.993905     -0.515821
  H       2.859199     -1.915211     -2.339544
  H       4.680505     -0.536838     -3.348022
  H       5.068139      1.785594     -2.516714
  H       3.614744      2.735326     -0.738482
  H      -1.919474      2.033938     -2.697723
  H      -0.960941      0.591862     -3.186508
  H      -0.276152      2.236300     -3.390182
  H      -2.616038      0.173533     -1.501289
35
Coordinates from ORCA-job file E -1203.890132573720
  C      -4.228689     -1.958103      1.423470
  O      -3.693012     -1.215739      0.353087
  C      -2.507596     -0.577277      0.516778
  C      -1.766518     -0.619989      1.702229
  C      -0.541365      0.066481      1.768299
  O       0.237245      0.062325      2.873700
  C      -0.172461     -0.652747      4.014892
  C      -0.061204      0.795033      0.664802
  S       1.469535      1.683703      0.772466
  C       2.443474      0.949423     -0.525842
  C       2.175219     -0.310910     -1.081695
  C       3.011051     -0.829365     -2.070915
  C       4.132170     -0.113959     -2.507511
  C       4.403164      1.137112     -1.947098
  C       3.559492      1.672457     -0.970674
  C      -0.846895      0.844204     -0.512618
  O      -0.340575      1.568431     -1.529325
  C      -0.980639      1.552632     -2.784037
  C      -2.052409      0.145507     -0.594669
  H      -3.560871     -2.786068      1.724857
  H      -5.179332     -2.379374      1.069067
  H      -4.426269     -1.321792      2.305763
  H      -2.126446     -1.177071      2.562755
  H       0.608043     -0.502067      4.772855
  H      -1.133733     -0.278618      4.412053
  H      -0.267599     -1.735357      3.811412
  H       1.312556     -0.885326     -0.738441
  H       2.790314     -1.810687     -2.500131
  H       4.785520     -0.528120     -3.278992
  H       5.271969      1.710924     -2.280476
  H       3.762095      2.664189     -0.557423
  H      -2.000029      1.975694     -2.730716
  H      -1.037958      0.529281     -3.195978
  H      -0.368378      2.173779     -3.451211
  H      -2.669969      0.151493     -1.490833
35
Coordinates from ORCA-job file E -1203.890194401139
  C      -4.229749     -1.948073      1.444099
  O      -3.719770     -1.196517      0.367848
  C      -2.528056     -0.560530      0.509204
  C      -1.759896     -0.617892      1.674205
  C      -0.535311      0.070387      1.719742
  O       0.266148      0.050162      2.810016
  C      -0.115786     -0.689699      3.944959
  C      -0.083888      0.819282      0.617335
  S       1.428219      1.735854      0.715466
  C       2.448306      0.959513     -0.523064
  C       2.211637     -0.325842     -1.032157
  C       3.082744     -0.873918     -1.975679
  C       4.202196     -0.159397     -2.414619
  C       4.439186      1.120805     -1.904509
  C       3.566125      1.681622     -0.970684
  C      -0.892080      0.868662     -0.544826
  O      -0.408278      1.596256     -1.572493
  C      -1.089198      1.593401     -2.806146
  C      -2.098598      0.172011     -0.605292
  H      -3.556268     -2.781167      1.718526
  H      -5.191786     -2.361838      1.112941
  H      -4.397814     -1.320599      2.338981
  H      -2.099370     -1.187771      2.534724
  H       0.682750     -0.557305      4.687063
  H      -1.066930     -0.323484      4.373271
  H      -0.220081     -1.766966      3.718444
  H       1.348691     -0.896213     -0.683121
  H       2.887791     -1.876470     -2.366289
  H       4.882247     -0.596459     -3.149302
  H       5.307298      1.694218     -2.240119
  H       3.747388      2.687332     -0.584327
  H      -2.101643      2.026972     -2.716911
  H      -1.174618      0.571898     -3.218219
  H      -0.494235      2.209988     -3.492666
  H      -2.737470      0.181876     -1.486501
35
Coordinates from ORCA-job file E -1203.890240499383
  C      -4.224304     -1.963346      1.448378
  O      -3.717047     -1.210573      0.371346
  C      -2.530069     -0.569091      0.510739
  C      -1.758182     -0.618283      1.676045
  C      -0.537444      0.078826      1.717310
  O       0.267627      0.071039      2.802609
  C      -0.100434     -0.668654      3.942226
  C      -0.093406      0.826476      0.610855
  S       1.416986      1.746759      0.700085
  C       2.441676      0.960739     -0.526423
  C       2.185241     -0.308129     -1.065551
  C       3.062502     -0.858907     -2.001634
  C       4.207059     -0.164075     -2.405112
  C       4.464869      1.098853     -1.863174
  C       3.587118      1.662554     -0.935930
  C      -0.903814      0.868846     -0.549484
  O      -0.422672      1.596688     -1.576525
  C      -1.101468      1.591738     -2.811220
  C      -2.107837      0.164746     -0.606375
  H      -3.549400     -2.794533      1.723418
  H      -5.184669     -2.380118      1.115842
  H      -4.396174     -1.336468      2.342446
  H      -2.092070     -1.187088      2.538385
  H       0.703499     -0.526983      4.676971
  H      -1.050352     -0.308850      4.378000
  H      -0.196778     -1.747278      3.720326
  H       1.300574     -0.864101     -0.750276
  H       2.849839     -1.848043     -2.417244
  H       4.890513     -0.602748     -3.136183
  H       5.353110      1.657842     -2.170203
  H       3.785931      2.657483     -0.528628
  H      -2.113491      2.026736     -2.725574
  H      -1.185798      0.570301     -3.222950
  H      -0.503677      2.207581     -3.496115
  H      -2.747557      0.170161     -1.486482
35
Coordinates from ORCA-job file E -1203.890245283037
  C      -4.214056     -1.975947      1.446155
  O      -3.712575     -1.218234      0.369732
  C      -2.529630     -0.570690      0.507443
  C      -1.754004     -0.617029      1.671415
  C      -0.536658      0.086883      1.710175
  O       0.272373      0.081927      2.791474
  C      -0.086107     -0.661313      3.931777
  C      -0.099886      0.837777      0.603014
  S       1.406756      1.765239      0.687483
  C       2.438542      0.964646     -0.523293
  C       2.174101     -0.302131     -1.062589
  C       3.053236     -0.862518     -1.991496
  C       4.207352     -0.179421     -2.386547
  C       4.473447      1.081576     -1.843697
  C       3.594709      1.654576     -0.923529
  C      -0.912101      0.875356     -0.555799
  O      -0.434384      1.603954     -1.583397
  C      -1.119351      1.604497     -2.814593
  C      -2.113607      0.165735     -0.610638
  H      -3.534906     -2.804566      1.717929
  H      -5.172909     -2.396596      1.114028
  H      -4.387852     -1.351957      2.341675
  H      -2.082389     -1.189047      2.533394
  H       0.722178     -0.518019      4.661491
  H      -1.034253     -0.305444      4.374419
  H      -0.179746     -1.739774      3.708596
  H       1.281674     -0.849093     -0.753758
  H       2.833956     -1.850117     -2.407523
  H       4.892211     -0.625247     -3.112152
  H       5.369747      1.631263     -2.144365
  H       3.800097      2.648086     -0.515317
  H      -2.130313      2.040519     -2.722057
  H      -1.206699      0.585123     -3.230630
  H      -0.524035      2.222726     -3.499556
  H      -2.755018      0.167360     -1.489364
35
Coordinates from ORCA-job file E -1203.890241828196
  C      -4.209262     -1.981471      1.449198
  O      -3.713401     -1.220837      0.372097
  C      -2.531454     -0.571143      0.505953
  C      -1.751615     -0.616533      1.667338
  C      -0.535770      0.090313      1.702275
  O       0.277029      0.086519      2.780389
  C      -0.075366     -0.658408      3.921553
  C      -0.105328      0.843765      0.594134
  S       1.398037      1.776834      0.673562
  C       2.437754      0.967321     -0.524772
  C       2.170690     -0.298347     -1.065152
  C       3.055360     -0.865254     -1.985128
  C       4.217054     -0.189671     -2.369947
  C       4.486204      1.070029     -1.825204
  C       3.602654      1.649303     -0.913910
  C      -0.921169      0.879305     -0.562269
  O      -0.447583      1.608104     -1.591551
  C      -1.140501      1.613202     -2.818307
  C      -2.121347      0.167073     -0.613390
  H      -3.527479     -2.809268      1.716815
  H      -5.168535     -2.403384      1.119844
  H      -4.380959     -1.359439      2.346463
  H      -2.075868     -1.190120      2.529919
  H       0.735978     -0.514527      4.647765
  H      -1.022079     -0.304286      4.368676
  H      -0.168382     -1.736813      3.697914
  H       1.272653     -0.839854     -0.763329
  H       2.833911     -1.852089     -2.401788
  H       4.906030     -0.640160     -3.088716
  H       5.389170      1.613315     -2.117393
  H       3.810679      2.641301     -0.503347
  H      -2.151151      2.048087     -2.717281
  H      -1.229945      0.595687     -3.238487
  H      -0.549967      2.234796     -3.504394
  H      -2.766145      0.166753     -1.489632
35
Coordinates from ORCA-job file E -1203.890241122075
  C      -4.203258     -1.987539      1.447631
  O      -3.712042     -1.222483      0.371453
  C      -2.531301     -0.570268      0.503762
  C      -1.749250     -0.615622      1.663609
  C      -0.534732      0.093483      1.697207
  O       0.280185      0.089512      2.773676
  C      -0.069561     -0.656416      3.915067
  C      -0.108051      0.849126      0.589050
  S       1.393546      1.785507      0.665688
  C       2.437841      0.968512     -0.524062
  C       2.170386     -0.299397     -1.058992
  C       3.057116     -0.872362     -1.973363
  C       4.220795     -0.200268     -2.358067
  C       4.490216      1.061808     -1.818790
  C       3.604970      1.646851     -0.912905
  C      -0.925646      0.883873     -0.566257
  O      -0.455062      1.613645     -1.596283
  C      -1.154925      1.624456     -2.819078
  C      -2.124710      0.169747     -0.615762
  H      -3.518131     -2.813766      1.711552
  H      -5.161798     -2.411739      1.119071
  H      -4.375246     -1.368329      2.346799
  H      -2.071057     -1.190975      2.526025
  H       0.742734     -0.512005      4.640100
  H      -1.016038     -0.303494      4.363652
  H      -0.161639     -1.734853      3.691114
  H       1.270802     -0.838145     -0.756868
  H       2.835408     -1.860957     -2.385617
  H       4.911333     -0.654998     -3.072615
  H       5.395170      1.601808     -2.110826
  H       3.813175      2.640185     -0.505851
  H      -2.165909      2.056444     -2.709585
  H      -1.244556      0.609318     -3.245075
  H      -0.569576      2.251306     -3.504836
  H      -2.771290      0.168137     -1.490721
