35
Coordinates from ORCA-job file
  C   -4.20325807222585     -1.98753855088051      1.44763143807928
  O   -3.71204198578524     -1.22248340587798      0.37145280217468
  C   -2.53130097479274     -0.57026775783140      0.50376157915551
  C   -1.74925048211725     -0.61562176672345      1.66360867249598
  C   -0.53473201604814      0.09348254339739      1.69720652941031
  O   0.28018501447450      0.08951231188184      2.77367606684570
  C   -0.06956132045917     -0.65641644619493      3.91506676020663
  C   -0.10805112211038      0.84912558035775      0.58904969940507
  S   1.39354645170741      1.78550693427208      0.66568813691953
  C   2.43784095799346      0.96851212718763     -0.52406208341228
  C   2.17038591384277     -0.29939735388185     -1.05899231670293
  C   3.05711608892997     -0.87236244710289     -1.97336349415208
  C   4.22079504824878     -0.20026780821049     -2.35806651054443
  C   4.49021568248258      1.06180750088012     -1.81878979423115
  C   3.60497006753237      1.64685073285744     -0.91290465713010
  C   -0.92564637729142      0.88387323917119     -0.56625709829376
  O   -0.45506182519393      1.61364478110050     -1.59628298922671
  C   -1.15492534755360      1.62445645445951     -2.81907842673397
  C   -2.12471006014506      0.16974685509283     -0.61576248742624
  H   -3.51813075766793     -2.81376576870873      1.71155152995071
  H   -5.16179792508441     -2.41173935764353      1.11907110362404
  H   -4.37524555964207     -1.36832932437375      2.34679924724967
  H   -2.07105681680090     -1.19097450028648      2.52602486972604
  H   0.74273436933796     -0.51200459634129      4.64009958821370
  H   -1.01603816931788     -0.30349398230737      4.36365156964900
  H   -0.16163879442664     -1.73485332714037      3.69111425432300
  H   1.27080212755972     -0.83814476895698     -0.75686778137752
  H   2.83540844708842     -1.86095733746492     -2.38561684343130
  H   4.91133295671376     -0.65499784473383     -3.07261469454477
  H   5.39517033266585      1.60180764389664     -2.11082551899100
  H   3.81317516419257      2.64018509700988     -0.50585148404199
  H   -2.16590937887529      2.05644367222582     -2.70958507084580
  H   -1.24455622175961      0.60931840197244     -3.24507488988420
  H   -0.56957590556889      2.25130578429886     -3.50483637534575
  H   -2.77128950990373      0.16813668459883     -1.49072133111287
