26
Coordinates from ORCA-job file E -424.233817930441
  C       2.568200     -0.084400      0.041200
  C       1.691800     -0.603600     -1.097700
  C       0.340200     -1.095100     -0.564500
  C      -0.356100     -0.043400      0.348200
  C      -1.598900     -0.657900      0.986400
  C      -2.721200     -0.382200     -0.002900
  N      -2.310900      0.725700     -0.870700
  C      -0.960300      1.116200     -0.464000
  N       0.576200      0.421000      1.401800
  C       1.819300      0.976200      0.848200
  H       2.853000     -0.927000      0.709100
  H       3.498000      0.356200     -0.378700
  H       2.212400     -1.443800     -1.605700
  H       1.542800      0.197900     -1.851900
  H       0.523600     -2.025400      0.017800
  H      -0.313800     -1.364100     -1.422700
  H      -1.838000     -0.147600      1.946400
  H      -1.494400     -1.745900      1.192200
  H      -2.921700     -1.296900     -0.606500
  H      -3.653900     -0.107800      0.534800
  H      -2.267200      0.374900     -1.857000
  H      -1.044600      2.028000      0.166300
  H      -0.345600      1.386800     -1.349000
  H       0.121900      1.167900      1.978900
  H       2.470700      1.308100      1.685200
  H       1.608400      1.866500      0.214800
26
Coordinates from ORCA-job file E -424.241014670752
  C       2.577895     -0.083451      0.034304
  C       1.687810     -0.588643     -1.104598
  C       0.340109     -1.070987     -0.553135
  C      -0.348269     -0.035903      0.352513
  C      -1.605763     -0.637538      1.000861
  C      -2.740181     -0.406763     -0.014166
  N      -2.296236      0.684458     -0.909643
  C      -0.963627      1.119864     -0.479980
  N       0.593477      0.397231      1.389771
  C       1.835810      0.966172      0.857631
  H       2.849918     -0.921028      0.689619
  H       3.504862      0.346298     -0.364920
  H       2.182878     -1.412330     -1.633039
  H       1.538171      0.213867     -1.840387
  H       0.506066     -1.984414      0.031965
  H      -0.334057     -1.332270     -1.379517
  H      -1.818530     -0.111361      1.939579
  H      -1.476822     -1.697041      1.240509
  H      -2.941368     -1.316390     -0.593744
  H      -3.672235     -0.131330      0.493315
  H      -2.255536      0.351264     -1.860763
  H      -1.047186      2.015987      0.154736
  H      -0.361559      1.397738     -1.351187
  H       0.136453      1.093048      1.968320
  H       2.455801      1.285918      1.702673
  H       1.652019      1.857903      0.229282
26
Coordinates from ORCA-job file E -424.241645544885
  C       2.575244     -0.088110      0.017899
  C       1.666735     -0.583128     -1.111913
  C       0.327652     -1.070112     -0.544932
  C      -0.347922     -0.028228      0.363167
  C      -1.613109     -0.611136      1.013478
  C      -2.724580     -0.426600     -0.037796
  N      -2.269154      0.658000     -0.937395
  C      -0.964221      1.128696     -0.467015
  N       0.608616      0.384874      1.391835
  C       1.845378      0.959931      0.856348
  H       2.847533     -0.929195      0.668323
  H       3.502129      0.336158     -0.386715
  H       2.151350     -1.395320     -1.666671
  H       1.502827      0.231447     -1.831053
  H       0.499754     -1.975580      0.050688
  H      -0.356820     -1.342023     -1.358640
  H      -1.843171     -0.044444      1.924994
  H      -1.475718     -1.656342      1.305803
  H      -2.894573     -1.350044     -0.605621
  H      -3.675881     -0.159310      0.436909
  H      -2.209656      0.326462     -1.891504
  H      -1.088550      2.006345      0.186743
  H      -0.349908      1.441315     -1.316864
  H       0.155986      1.058167      2.003813
  H       2.467732      1.272696      1.702040
  H       1.662228      1.855783      0.234080
26
Coordinates from ORCA-job file E -424.241791562594
  C       2.572296     -0.093574      0.007367
  C       1.651636     -0.581094     -1.116035
  C       0.317819     -1.070456     -0.538557
  C      -0.348552     -0.022083      0.369682
  C      -1.618335     -0.590012      1.022340
  C      -2.708690     -0.446705     -0.055672
  N      -2.262748      0.652801     -0.942810
  C      -0.964664      1.135249     -0.459632
  N       0.617011      0.379252      1.393732
  C       1.852208      0.954076      0.856187
  H       2.846321     -0.938012      0.653024
  H       3.497810      0.328034     -0.403681
  H       2.129733     -1.386499     -1.686684
  H       1.478050      0.241431     -1.824032
  H       0.496025     -1.970563      0.063839
  H      -0.371384     -1.349697     -1.345614
  H      -1.867900      0.016244      1.903416
  H      -1.480864     -1.621120      1.362064
  H      -2.830207     -1.378896     -0.622874
  H      -3.681597     -0.210168      0.390785
  H      -2.195816      0.334749     -1.900287
  H      -1.106615      2.004233      0.201787
  H      -0.345357      1.464873     -1.299660
  H       0.173792      1.034714      2.030484
  H       2.480228      1.259131      1.700761
  H       1.669701      1.854392      0.240069
26
Coordinates from ORCA-job file E -424.241808485132
  C       2.572002     -0.093585      0.006007
  C       1.650045     -0.581364     -1.116144
  C       0.316906     -1.071091     -0.537205
  C      -0.348809     -0.021823      0.370609
  C      -1.619504     -0.587752      1.023236
  C      -2.707056     -0.449258     -0.057331
  N      -2.265207      0.655834     -0.938985
  C      -0.964024      1.135269     -0.459814
  N       0.617484      0.378562      1.394016
  C       1.852689      0.953184      0.856688
  H       2.848042     -0.938267      0.650464
  H       3.496181      0.329155     -0.406895
  H       2.127834     -1.386372     -1.687618
  H       1.474909      0.241309     -1.823562
  H       0.496157     -1.970423      0.066023
  H      -0.372222     -1.351325     -1.343901
  H      -1.872576      0.026207      1.897860
  H      -1.483730     -1.616331      1.371171
  H      -2.814717     -1.381458     -0.627243
  H      -3.685017     -0.223731      0.383893
  H      -2.201023      0.344334     -1.899120
  H      -1.102255      2.006241      0.199702
  H      -0.345578      1.461678     -1.301725
  H       0.177157      1.030316      2.036552
  H       2.482060      1.256239      1.700931
  H       1.670153      1.854755      0.242388
26
Coordinates from ORCA-job file E -424.241817313392
  C       2.571540     -0.094422      0.005582
  C       1.648898     -0.582733     -1.115716
  C       0.315237     -1.070786     -0.536422
  C      -0.349224     -0.020802      0.371589
  C      -1.620091     -0.585312      1.024582
  C      -2.703679     -0.453990     -0.059609
  N      -2.268679      0.660519     -0.932615
  C      -0.963736      1.136480     -0.458962
  N       0.617699      0.379090      1.394358
  C       1.853181      0.952571      0.856724
  H       2.848719     -0.938973      0.649722
  H       3.494984      0.328678     -0.408622
  H       2.126192     -1.389040     -1.685786
  H       1.474426      0.238953     -1.824425
  H       0.493602     -1.970531      0.066454
  H      -0.373907     -1.349757     -1.343535
  H      -1.876874      0.033951      1.894426
  H      -1.484910     -1.611884      1.378556
  H      -2.796232     -1.385252     -0.633978
  H      -3.686727     -0.242348      0.377167
  H      -2.211239      0.358746     -1.896136
  H      -1.095969      2.010083      0.198275
  H      -0.346794      1.457868     -1.303970
  H       0.179038      1.029898      2.038831
  H       2.483535      1.254727      1.700554
  H       1.670909      1.854567      0.242955
26
Coordinates from ORCA-job file E -424.241824924036
  C       2.571460     -0.094875      0.006086
  C       1.648988     -0.584458     -1.114765
  C       0.314461     -1.070809     -0.535964
  C      -0.349406     -0.020376      0.371971
  C      -1.620247     -0.584384      1.025263
  C      -2.701461     -0.457566     -0.060765
  N      -2.272504      0.665521     -0.925132
  C      -0.963020      1.137039     -0.458946
  N       0.617649      0.379571      1.394489
  C       1.853114      0.952614      0.856550
  H       2.849306     -0.938802      0.650752
  H       3.494501      0.328373     -0.408888
  H       2.126155     -1.392366     -1.682684
  H       1.475721      0.235851     -1.825360
  H       0.491339     -1.971198      0.066420
  H      -0.374442     -1.348113     -1.343851
  H      -1.879549      0.037874      1.892224
  H      -1.484788     -1.609693      1.382759
  H      -2.781412     -1.387224     -0.639880
  H      -3.688474     -0.258392      0.373028
  H      -2.226036      0.376373     -1.892960
  H      -1.087412      2.013854      0.195576
  H      -0.348160      1.451883     -1.307997
  H       0.179667      1.030135      2.039567
  H       2.483716      1.255099      1.700073
  H       1.670735      1.854369      0.242433
26
Coordinates from ORCA-job file E -424.241834308822
  C       2.571391     -0.096750      0.007462
  C       1.649073     -0.587866     -1.112831
  C       0.312866     -1.070824     -0.535006
  C      -0.349608     -0.019190      0.372609
  C      -1.620291     -0.582128      1.026719
  C      -2.695945     -0.466052     -0.063998
  N      -2.280012      0.675097     -0.909885
  C      -0.961852      1.138580     -0.458781
  N       0.617869      0.380662      1.394619
  C       1.853361      0.952600      0.855795
  H       2.848846     -0.939513      0.653797
  H       3.494609      0.325363     -0.408271
  H       2.125549     -1.398317     -1.677689
  H       1.478171      0.230583     -1.826141
  H       0.486810     -1.972114      0.066931
  H      -0.375784     -1.345257     -1.344036
  H      -1.884935      0.046151      1.887776
  H      -1.483328     -1.604535      1.391774
  H      -2.751064     -1.392125     -0.652349
  H      -3.690357     -0.291908      0.363662
  H      -2.258043      0.413360     -1.886165
  H      -1.071546      2.020768      0.191178
  H      -0.351248      1.441959     -1.315181
  H       0.180412      1.031885      2.039364
  H       2.484002      1.256672      1.698700
  H       1.670954      1.853199      0.239948
26
Coordinates from ORCA-job file E -424.241836497281
  C       2.571947     -0.097790      0.009459
  C       1.650636     -0.589567     -1.111375
  C       0.313404     -1.071275     -0.534915
  C      -0.349458     -0.019209      0.371981
  C      -1.619724     -0.582790      1.026592
  C      -2.694476     -0.469328     -0.064541
  N      -2.284548      0.680214     -0.901024
  C      -0.961104      1.138605     -0.459993
  N       0.617570      0.381502      1.394189
  C       1.853142      0.953112      0.855163
  H       2.847686     -0.939737      0.657593
  H       3.496164      0.322910     -0.405487
  H       2.127140     -1.400802     -1.675090
  H       1.481089      0.228412     -1.825563
  H       0.485836     -1.972743      0.067238
  H      -0.374628     -1.344838     -1.344727
  H      -1.885706      0.046212      1.886722
  H      -1.481031     -1.604569      1.392735
  H      -2.741095     -1.393006     -0.657743
  H      -3.690990     -0.305185      0.362230
  H      -2.279628      0.435235     -1.881754
  H      -1.061819      2.023894      0.187252
  H      -0.353246      1.435090     -1.320864
  H       0.179186      1.034290      2.036774
  H       2.482823      1.259405      1.697987
  H       1.670729      1.852262      0.237160
26
Coordinates from ORCA-job file E -424.241836919105
  C       2.572073     -0.098211      0.009740
  C       1.650741     -0.589119     -1.111478
  C       0.313733     -1.071341     -0.534960
  C      -0.349349     -0.019224      0.371726
  C      -1.619498     -0.583026      1.026444
  C      -2.694670     -0.469316     -0.064478
  N      -2.284171      0.679414     -0.901789
  C      -0.961241      1.138541     -0.460240
  N       0.617600      0.381645      1.394035
  C       1.853348      0.953065      0.855084
  H       2.846643     -0.940392      0.658071
  H       3.496949      0.321705     -0.404519
  H       2.127136     -1.399554     -1.676431
  H       1.480846      0.229751     -1.824570
  H       0.486630     -1.972403      0.067664
  H      -0.374352     -1.345676     -1.344460
  H      -1.885133      0.045492      1.887048
  H      -1.480317     -1.604896      1.392139
  H      -2.743513     -1.393286     -0.657059
  H      -3.690486     -0.303190      0.363108
  H      -2.279582      0.434155     -1.882507
  H      -1.063058      2.023281      0.187591
  H      -0.353077      1.436138     -1.320511
  H       0.178734      1.035119      2.035675
  H       2.482705      1.259665      1.698042
  H       1.671207      1.851965      0.236635
