26
Coordinates from ORCA-job file
  C   2.57207271360355     -0.09821112281198      0.00973971866431
  C   1.65074143362087     -0.58911935003370     -1.11147803839234
  C   0.31373305190773     -1.07134065111179     -0.53495954588448
  C   -0.34934910378030     -0.01922382662457      0.37172631531102
  C   -1.61949824028835     -0.58302642662354      1.02644371434507
  C   -2.69466966791528     -0.46931624134768     -0.06447808951468
  N   -2.28417068262551      0.67941432788664     -0.90178915762594
  C   -0.96124099510518      1.13854097623038     -0.46023980365210
  N   0.61759958017047      0.38164466620900      1.39403470097799
  C   1.85334822540977      0.95306470357582      0.85508378561223
  H   2.84664292225085     -0.94039196707261      0.65807142657382
  H   3.49694942255161      0.32170473994233     -0.40451941951545
  H   2.12713579105113     -1.39955422841858     -1.67643073751921
  H   1.48084623337817      0.22975110624206     -1.82456975021123
  H   0.48663044094493     -1.97240328650185      0.06766389603232
  H   -0.37435197470333     -1.34567582478130     -1.34446010648840
  H   -1.88513320179790      0.04549152359924      1.88704789990640
  H   -1.48031657518856     -1.60489611264451      1.39213907403728
  H   -2.74351294651465     -1.39328639965720     -0.65705908244108
  H   -3.69048596982446     -0.30319007371077      0.36310795271257
  H   -2.27958193650078      0.43415541967689     -1.88250685985615
  H   -1.06305773386422      2.02328094988225      0.18759130281121
  H   -0.35307654049535      1.43613777929938     -1.32051139942773
  H   0.17873377445739      1.03511940167815      2.03567500858571
  H   2.48270512466230      1.25966525277959      1.69804195998973
  H   1.67120685459509      1.85196466433836      0.23663523496912
