17
Coordinates from ORCA-job file
  C   -1.41566670727465      0.67342427430093     -0.04927082364721
  C   -1.37618154435636     -0.84830787287414     -0.01251242956491
  N   -0.16086661953500     -1.24878970223328      0.69578293266209
  C   1.04879379275748     -0.76795044714925      0.05921467763556
  C   1.70454665039711      0.46787305953736      0.63734094062336
  C   0.96655780700896      0.53337515200918     -0.68637491665389
  N   -0.31666823991634      1.16740137860511     -0.88274184606085
  H   -2.35825301483483      1.01771601838410     -0.49055245108140
  H   -1.36861504949132      1.03663453528865      0.99128185204994
  H   -2.24220663553999     -1.22644505991072      0.54108658020957
  H   -1.42370928322495     -1.23206367347221     -1.04639814969072
  H   -0.11805937782045     -2.24930892815326      0.83605596553134
  H   1.69472090687878     -1.53489943894738     -0.36744507978402
  H   1.20687354539921      0.87425919086915      1.51409681796102
  H   2.78836341796562      0.55791679575886      0.62681256116564
  H   1.59646188476812      0.60569905570051     -1.57124661790271
  H   -0.22619153318139      2.17346566228640     -0.79503001345281
