17
Coordinates from ORCA-job file E -306.155662457555
  C      -1.407200      0.678500     -0.040200
  C      -1.363100     -0.841000      0.021100
  N      -0.153900     -1.245700      0.730200
  C       1.045300     -0.813700      0.003800
  C       1.622600      0.470200      0.599900
  C       0.981800      0.501900     -0.781700
  N      -0.312300      1.212100     -0.862100
  H      -2.373800      0.993700     -0.487600
  H      -1.358100      1.097300      0.990000
  H      -2.252800     -1.207200      0.577800
  H      -1.387100     -1.275100     -1.004700
  H      -0.142100     -2.291300      0.763800
  H       1.810400     -1.573400     -0.267100
  H       1.028500      0.935800      1.415100
  H       2.731700      0.520000      0.581400
  H       1.685800      0.622800     -1.631500
  H      -0.155800      2.215100     -0.608100
17
Coordinates from ORCA-job file E -306.166584750564
  C      -1.413486      0.675205     -0.045035
  C      -1.366099     -0.841489      0.009648
  N      -0.155593     -1.253171      0.727794
  C       1.038251     -0.787411      0.034668
  C       1.661522      0.472767      0.604435
  C       0.961949      0.501996     -0.745075
  N      -0.309358      1.194108     -0.863331
  H      -2.362832      0.991112     -0.498271
  H      -1.382972      1.072148      0.984453
  H      -2.244853     -1.215805      0.549476
  H      -1.390580     -1.242202     -1.019529
  H      -0.134059     -2.267756      0.756877
  H       1.760929     -1.546977     -0.262674
  H       1.126415      0.933609      1.431411
  H       2.749500      0.529712      0.584985
  H       1.616375      0.611840     -1.609016
  H      -0.155209      2.172314     -0.640714
17
Coordinates from ORCA-job file E -306.169535468578
  C      -1.416921      0.673078     -0.048596
  C      -1.371727     -0.844973     -0.002158
  N      -0.161706     -1.256256      0.715774
  C       1.040953     -0.770112      0.064282
  C       1.691330      0.477993      0.614789
  C       0.959363      0.508492     -0.716448
  N      -0.312231      1.182757     -0.869623
  H      -2.359975      0.997854     -0.503479
  H      -1.389760      1.051962      0.986407
  H      -2.245843     -1.222668      0.538225
  H      -1.404431     -1.232119     -1.035120
  H      -0.126455     -2.266905      0.762654
  H       1.724159     -1.541852     -0.284688
  H       1.188726      0.936008      1.462391
  H       2.775992      0.545016      0.600027
  H       1.583801      0.591630     -1.603379
  H      -0.175374      2.170095     -0.680959
17
Coordinates from ORCA-job file E -306.170390705209
  C      -1.415043      0.672088     -0.048711
  C      -1.375069     -0.848414     -0.011628
  N      -0.165738     -1.255127      0.707060
  C       1.044299     -0.764351      0.073742
  C       1.703038      0.478575      0.627755
  C       0.963210      0.521792     -0.696743
  N      -0.314441      1.174376     -0.878015
  H      -2.357224      1.011869     -0.494123
  H      -1.375679      1.035635      0.991845
  H      -2.246801     -1.225871      0.533234
  H      -1.413172     -1.232241     -1.045759
  H      -0.120538     -2.261812      0.792936
  H       1.698483     -1.535467     -0.330871
  H       1.209372      0.918796      1.490449
  H       2.787633      0.555861      0.618523
  H       1.581939      0.581537     -1.590409
  H      -0.204368      2.172754     -0.739185
17
Coordinates from ORCA-job file E -306.170538539588
  C      -1.414254      0.672704     -0.048196
  C      -1.375870     -0.848842     -0.013102
  N      -0.164330     -1.252623      0.701785
  C       1.046089     -0.765647      0.068459
  C       1.704241      0.474062      0.633670
  C       0.965186      0.529031     -0.689334
  N      -0.315682      1.169652     -0.882099
  H      -2.356991      1.017946     -0.488277
  H      -1.367158      1.033259      0.993264
  H      -2.245264     -1.226776      0.535243
  H      -1.417907     -1.231543     -1.047555
  H      -0.118693     -2.256519      0.815987
  H       1.693859     -1.532641     -0.355024
  H       1.208084      0.896704      1.503722
  H       2.788426      0.558402      0.626169
  H       1.589501      0.589262     -1.579123
  H      -0.219337      2.173568     -0.775489
17
Coordinates from ORCA-job file E -306.170575526162
  C      -1.414801      0.673373     -0.048527
  C      -1.376062     -0.848479     -0.012611
  N      -0.161825     -1.250049      0.697563
  C       1.048013     -0.767418      0.062008
  C       1.704223      0.469530      0.636812
  C       0.966325      0.532639     -0.686611
  N      -0.316511      1.167530     -0.883212
  H      -2.357785      1.018918     -0.487973
  H      -1.365929      1.035275      0.992422
  H      -2.243123     -1.226728      0.539299
  H      -1.421931     -1.231475     -1.046845
  H      -0.117963     -2.251551      0.830706
  H       1.693877     -1.533451     -0.366389
  H       1.205840      0.879540      1.511550
  H       2.788168      0.558567      0.628445
  H       1.595345      0.600315     -1.572509
  H      -0.225962      2.173464     -0.794028
17
Coordinates from ORCA-job file E -306.170579307304
  C      -1.415338      0.673475     -0.048963
  C      -1.376163     -0.848304     -0.012393
  N      -0.160962     -1.249112      0.696039
  C       1.048690     -0.767924      0.059577
  C       1.704321      0.468119      0.637413
  C       0.966588      0.533347     -0.686322
  N      -0.316646      1.167183     -0.883006
  H      -2.358092      1.018173     -0.489562
  H      -1.367505      1.036475      0.991635
  H      -2.242335     -1.226466      0.540966
  H      -1.423527     -1.231809     -1.046377
  H      -0.117992     -2.249854      0.834880
  H       1.694632     -1.534544     -0.367679
  H       1.206089      0.874770      1.513739
  H       2.788150      0.558206      0.627685
  H       1.596503      0.604880     -1.571246
  H      -0.226514      2.173383     -0.796288
17
Coordinates from ORCA-job file E -306.170579499120
  C      -1.415667      0.673424     -0.049271
  C      -1.376182     -0.848308     -0.012512
  N      -0.160867     -1.248790      0.695783
  C       1.048794     -0.767950      0.059215
  C       1.704547      0.467873      0.637341
  C       0.966558      0.533375     -0.686375
  N      -0.316668      1.167401     -0.882742
  H      -2.358253      1.017716     -0.490552
  H      -1.368615      1.036635      0.991282
  H      -2.242207     -1.226445      0.541087
  H      -1.423709     -1.232064     -1.046398
  H      -0.118059     -2.249309      0.836056
  H       1.694721     -1.534899     -0.367445
  H       1.206874      0.874259      1.514097
  H       2.788363      0.557917      0.626813
  H       1.596462      0.605699     -1.571247
  H      -0.226192      2.173466     -0.795030
