15
Coordinates from ORCA-job file E -250.749480573339
  C      -1.611000     -0.600900      0.361300
  C      -1.205500      0.586600     -0.503000
  C      -0.146400     -0.267100      0.191500
  C       0.860700      0.515200      0.970500
  N       1.936900      0.043400      0.072400
  C       0.951500     -0.736800     -0.706900
  H      -1.920700     -1.509600     -0.196300
  H      -2.005400     -0.343200      1.366500
  H      -1.469900      1.555000     -0.026600
  H      -1.385600      0.393800     -1.582400
  H       0.732400      1.621700      0.935200
  H       0.994000      0.111200      1.996600
  H       2.255900      0.851600     -0.513500
  H       1.134500     -1.827300     -0.600500
  H       0.878500     -0.393500     -1.764600
15
Coordinates from ORCA-job file E -250.762422109593
  C      -1.609230     -0.594268      0.356533
  C      -1.234453      0.590262     -0.507426
  C      -0.160465     -0.246605      0.175328
  C       0.868965      0.524544      0.990881
  N       1.942130      0.055454      0.063762
  C       0.961629     -0.753220     -0.721139
  H      -1.931196     -1.496197     -0.163283
  H      -2.012697     -0.371233      1.343840
  H      -1.490273      1.554176     -0.067395
  H      -1.408831      0.431369     -1.571610
  H       0.733133      1.613661      0.992435
  H       1.025438      0.133722      2.006305
  H       2.265127      0.837360     -0.502100
  H       1.167747     -1.828424     -0.622812
  H       0.882876     -0.450500     -1.773120
15
Coordinates from ORCA-job file E -250.767517598254
  C      -1.599916     -0.591665      0.355143
  C      -1.257466      0.595473     -0.512634
  C      -0.167215     -0.216877      0.152766
  C       0.873109      0.522213      0.996087
  N       1.942392      0.066301      0.055682
  C       0.965954     -0.758609     -0.720173
  H      -1.934516     -1.500625     -0.138674
  H      -2.014408     -0.396109      1.341027
  H      -1.505583      1.569266     -0.097095
  H      -1.425466      0.462995     -1.578782
  H       0.732774      1.607957      1.038783
  H       1.040612      0.122873      2.004064
  H       2.282060      0.841814     -0.504304
  H       1.182188     -1.828509     -0.610861
  H       0.885382     -0.496397     -1.780829
15
Coordinates from ORCA-job file E -250.770217727688
  C      -1.586412     -0.592956      0.356794
  C      -1.282442      0.601859     -0.518736
  C      -0.171006     -0.182064      0.126647
  C       0.875515      0.521070      0.993360
  N       1.944062      0.072964      0.050730
  C       0.968000     -0.756209     -0.718095
  H      -1.924090     -1.509444     -0.122155
  H      -2.003353     -0.414131      1.345511
  H      -1.526457      1.582803     -0.116217
  H      -1.447001      0.483858     -1.587730
  H       0.743969      1.606641      1.073708
  H       1.035020      0.097530      1.992970
  H       2.300930      0.843156     -0.504219
  H       1.174463     -1.825423     -0.583790
  H       0.898702     -0.529555     -1.788579
15
Coordinates from ORCA-job file E -250.771723247214
  C      -1.569850     -0.595816      0.359679
  C      -1.309768      0.607731     -0.524484
  C      -0.173340     -0.146201      0.099855
  C       0.877117      0.523201      0.987259
  N       1.950061      0.069500      0.053557
  C       0.969164     -0.749775     -0.718131
  H      -1.902187     -1.518298     -0.111513
  H      -1.981450     -0.426240      1.352301
  H      -1.556672      1.589907     -0.126526
  H      -1.477522      0.494342     -1.593569
  H       0.768347      1.609322      1.094191
  H       1.011330      0.074585      1.979394
  H       2.321804      0.835422     -0.497419
  H       1.148523     -1.820313     -0.559337
  H       0.924344     -0.547265     -1.795058
15
Coordinates from ORCA-job file E -250.772542385130
  C      -1.552734     -0.599268      0.363147
  C      -1.337722      0.610751     -0.528267
  C      -0.174392     -0.112799      0.074906
  C       0.878360      0.529210      0.980002
  N       1.959402      0.052474      0.066743
  C       0.970206     -0.741021     -0.721673
  H      -1.875181     -1.527840     -0.102951
  H      -1.954592     -0.435819      1.360814
  H      -1.593738      1.590582     -0.130062
  H      -1.514755      0.495995     -1.595803
  H       0.801553      1.617321      1.096471
  H       0.975444      0.068090      1.970414
  H       2.348382      0.813221     -0.479527
  H       1.111733     -1.815436     -0.553044
  H       0.957936     -0.545363     -1.800968
15
Coordinates from ORCA-job file E -250.772949054199
  C      -1.537703     -0.603657      0.367406
  C      -1.362924      0.609048     -0.528601
  C      -0.174291     -0.086775      0.055452
  C       0.878211      0.539246      0.972996
  N       1.967025      0.021712      0.090166
  C       0.970233     -0.731237     -0.729410
  H      -1.848818     -1.538428     -0.093877
  H      -1.928151     -0.445320      1.370392
  H      -1.630832      1.584823     -0.128411
  H      -1.551926      0.490287     -1.593602
  H       0.834642      1.630775      1.075605
  H       0.934717      0.088420      1.970926
  H       2.387066      0.772508     -0.447098
  H       1.072417     -1.812098     -0.576047
  H       0.990235     -0.519205     -1.805698
15
Coordinates from ORCA-job file E -250.773200173457
  C      -1.526220     -0.608883      0.372077
  C      -1.382942      0.603887     -0.526080
  C      -0.173656     -0.069692      0.042671
  C       0.876302      0.551439      0.966819
  N       1.968330     -0.013957      0.116971
  C       0.968695     -0.721790     -0.739526
  H      -1.826930     -1.549152     -0.084908
  H      -1.906100     -0.454897      1.379785
  H      -1.662214      1.575350     -0.123286
  H      -1.583234      0.480559     -1.588454
  H       0.860596      1.646335      1.038642
  H       0.898056      0.128446      1.978074
  H       2.436169      0.719132     -0.404712
  H       1.038630     -1.809327     -0.619550
  H       1.014418     -0.477350     -1.808325
15
Coordinates from ORCA-job file E -250.773436468313
  C      -1.517042     -0.614536      0.376796
  C      -1.399074      0.597651     -0.522376
  C      -0.173213     -0.057875      0.033734
  C       0.873233      0.564170      0.960515
  N       1.963971     -0.048670      0.142839
  C       0.966071     -0.712346     -0.750138
  H      -1.808211     -1.559470     -0.076742
  H      -1.887226     -0.464267      1.388663
  H      -1.688843      1.564554     -0.116159
  H      -1.609898      0.469450     -1.582068
  H       0.880633      1.661061      0.994790
  H       0.866835      0.175875      1.985937
  H       2.489631      0.659491     -0.357435
  H       1.010721     -1.804985     -0.669538
  H       1.032313     -0.430003     -1.808618
15
Coordinates from ORCA-job file E -250.773684160814
  C      -1.509259     -0.620687      0.381735
  C      -1.412929      0.591060     -0.518113
  C      -0.173507     -0.049045      0.026910
  C       0.869689      0.577053      0.953204
  N       1.955683     -0.081531      0.167108
  C       0.962980     -0.702074     -0.760676
  H      -1.791629     -1.569669     -0.068900
  H      -1.870465     -0.473861      1.397341
  H      -1.712063      1.553490     -0.108223
  H      -1.633382      0.458206     -1.575191
  H       0.896962      1.674300      0.947463
  H       0.840263      0.226077      1.991848
  H       2.543533      0.595133     -0.306516
  H       0.987578     -1.797845     -0.720924
  H       1.046448     -0.380506     -1.806866
15
Coordinates from ORCA-job file E -250.773937012128
  C      -1.502312     -0.627574      0.387287
  C      -1.425529      0.584259     -0.513657
  C      -0.175070     -0.042077      0.021483
  C       0.866316      0.589832      0.944532
  N       1.944613     -0.112612      0.189649
  C       0.959822     -0.690384     -0.770831
  H      -1.776706     -1.580184     -0.060587
  H      -1.855469     -0.483983      1.406181
  H      -1.732738      1.542791     -0.100776
  H      -1.654207      0.447272     -1.568411
  H       0.911251      1.685862      0.898190
  H       0.817852      0.277182      1.994903
  H       2.595349      0.526540     -0.252528
  H       0.968410     -1.787352     -0.772134
  H       1.058318     -0.329473     -1.803102
15
Coordinates from ORCA-job file E -250.774183218777
  C      -1.495060     -0.635135      0.393554
  C      -1.438998      0.577086     -0.509215
  C      -0.178071     -0.034758      0.015929
  C       0.864012      0.602503      0.934615
  N       1.932231     -0.143789      0.211960
  C       0.957323     -0.677115     -0.780512
  H      -1.761953     -1.591374     -0.051087
  H      -1.840828     -0.494842      1.415432
  H      -1.753387      1.532626     -0.094895
  H      -1.674501      0.436798     -1.562036
  H       0.927878      1.695754      0.848796
  H       0.797607      0.328747      1.994851
  H       2.640894      0.454686     -0.196477
  H       0.950907     -1.773287     -0.823307
  H       1.071846     -0.277801     -1.797407
15
Coordinates from ORCA-job file E -250.774407658450
  C      -1.486571     -0.642918      0.400035
  C      -1.453909      0.569785     -0.504824
  C      -0.181830     -0.025823      0.009191
  C       0.862735      0.614938      0.923911
  N       1.918667     -0.176092      0.235208
  C       0.955688     -0.663070     -0.789569
  H      -1.746004     -1.602826     -0.041094
  H      -1.824967     -0.506099      1.424833
  H      -1.775391      1.522669     -0.089785
  H      -1.695990      0.426690     -1.555802
  H       0.949393      1.703508      0.799624
  H       0.777860      0.380698      1.992132
  H       2.677082      0.381756     -0.139938
  H       0.933495     -1.756472     -0.874376
  H       1.089641     -0.226642     -1.789346
15
Coordinates from ORCA-job file E -250.774581425059
  C      -1.476569     -0.650080      0.405761
  C      -1.469425      0.562729     -0.500298
  C      -0.184893     -0.014969      0.000952
  C       0.861738      0.627085      0.912987
  N       1.903484     -0.209360      0.259407
  C       0.954495     -0.649374     -0.797924
  H      -1.727830     -1.613523     -0.032386
  H      -1.806909     -0.517086      1.433648
  H      -1.798783      1.512110     -0.083378
  H      -1.719335      0.416614     -1.549019
  H       0.975328      1.708583      0.750537
  H       0.757751      0.433219      1.987474
  H       2.703221      0.309626     -0.084576
  H       0.915614     -1.738160     -0.924543
  H       1.112014     -0.177314     -1.778443
15
Coordinates from ORCA-job file E -250.774679905789
  C      -1.466428     -0.657904      0.411818
  C      -1.483801      0.556138     -0.495832
  C      -0.189061     -0.005063     -0.006457
  C       0.860861      0.638480      0.900598
  N       1.885746     -0.241569      0.282477
  C       0.953075     -0.634541     -0.804911
  H      -1.710006     -1.624352     -0.023992
  H      -1.789743     -0.529077      1.442402
  H      -1.820858      1.501917     -0.076904
  H      -1.741358      0.407321     -1.542340
  H       1.000819      1.710679      0.697879
  H       0.741270      0.485845      1.980024
  H       2.724942      0.235361     -0.028123
  H       0.900861     -1.717086     -0.972725
  H       1.133579     -0.126049     -1.763715
15
Coordinates from ORCA-job file E -250.774678235475
  C      -1.457613     -0.659603      0.413212
  C      -1.495360      0.551587     -0.492776
  C      -0.188138      0.006715     -0.015355
  C       0.860072      0.646412      0.894921
  N       1.874107     -0.264646      0.299425
  C       0.952777     -0.627302     -0.810763
  H      -1.692858     -1.628916     -0.020754
  H      -1.772778     -0.533612      1.446678
  H      -1.840015      1.492835     -0.070011
  H      -1.761244      0.399123     -1.536563
  H       1.023932      1.711074      0.671889
  H       0.725112      0.520185      1.975815
  H       2.729590      0.191872      0.004179
  H       0.886667     -1.704647     -1.004357
  H       1.155650     -0.100976     -1.755342
15
Coordinates from ORCA-job file E -250.774694311912
  C      -1.461441     -0.659517      0.413131
  C      -1.490181      0.553784     -0.494261
  C      -0.189404      0.001161     -0.011063
  C       0.860412      0.642607      0.896738
  N       1.879139     -0.254623      0.291902
  C       0.952688     -0.629807     -0.807714
  H      -1.700772     -1.627473     -0.021612
  H      -1.780860     -0.532454      1.445145
  H      -1.831413      1.497264     -0.073627
  H      -1.752125      0.403235     -1.539390
  H       1.013327      1.710569      0.680941
  H       0.732946      0.505052      1.977202
  H       2.728925      0.209621     -0.008994
  H       0.893439     -1.709526     -0.990120
  H       1.145221     -0.109794     -1.758077
15
Coordinates from ORCA-job file E -250.774693906152
  C      -1.462110     -0.659361      0.412971
  C      -1.489459      0.553819     -0.494240
  C      -0.189133      0.000282     -0.010366
  C       0.860477      0.642252      0.897228
  N       1.879903     -0.253437      0.291039
  C       0.952739     -0.630374     -0.807505
  H      -1.702030     -1.627127     -0.021882
  H      -1.782163     -0.532182      1.444776
  H      -1.830078      1.497661     -0.073929
  H      -1.750738      0.403714     -1.539597
  H       1.011952      1.710639      0.682589
  H       0.733929      0.503581      1.977653
  H       2.728332      0.212388     -0.011096
  H       0.894333     -1.710329     -0.988742
  H       1.143947     -0.111427     -1.758699
