15
Coordinates from ORCA-job file
  C   -1.46211038501808     -0.65936106477814      0.41297128256514
  C   -1.48945888912252      0.55381865185180     -0.49424041872754
  C   -0.18913339305929      0.00028238983392     -0.01036626807653
  C   0.86047662561814      0.64225222339101      0.89722815669136
  N   1.87990256180580     -0.25343735856432      0.29103885570891
  C   0.95273910072130     -0.63037413590738     -0.80750544139767
  H   -1.70202957998407     -1.62712672107523     -0.02188222963239
  H   -1.78216252467788     -0.53218198830006      1.44477632730877
  H   -1.83007769307900      1.49766079512653     -0.07392866632425
  H   -1.75073815683251      0.40371431520128     -1.53959684640192
  H   1.01195213972971      1.71063918369487      0.68258890925450
  H   0.73392886024843      0.50358109771149      1.97765315193036
  H   2.72833225646842      0.21238826012932     -0.01109608691977
  H   0.89433255087576     -1.71032874811456     -0.98874216162139
  H   1.14394652630580     -0.11142690020052     -1.75869856435758
