15
Coordinates from ORCA-job file
  C   -1.16816058051108     -0.60321954075794      0.01286954419855
  C   0.23090080471394     -1.22365196323890      0.04200446916772
  N   1.09070145052075     -0.35022346386230      0.84085933495030
  C   1.13546979524018      0.98893356575603      0.27659395556455
  O   -0.14158607197379      1.58481707364875      0.31157951086343
  C   -1.07044019000269      0.84348452116537     -0.47234389069436
  H   -1.58929289103832     -0.61765789267223      1.02411515910024
  H   -1.83027700447632     -1.17437198473828     -0.64956407052879
  H   0.20706363823617     -2.21873882264746      0.49824853310532
  H   0.60041980158673     -1.33490862941288     -0.99623504888608
  H   2.02841156270987     -0.72720771410765      0.92858040381080
  H   1.79810389322619      1.61615240452698      0.87847640223405
  H   1.48898514025802      0.98403749917382     -0.77724746303878
  H   -2.02715031785373      1.36614135049315     -0.38823757419653
  H   -0.75314903063591      0.86661359667353     -1.52989926565043
