15
Coordinates from ORCA-job file E -287.936821934250
  C      -1.175000     -0.598100      0.005900
  C       0.220300     -1.216000      0.077300
  N       1.114600     -0.352600      0.855200
  C       1.125700      1.000900      0.283900
  O      -0.164000      1.579700      0.355000
  C      -1.058000      0.853500     -0.466100
  H      -1.643900     -0.622500      1.013800
  H      -1.811200     -1.176700     -0.697900
  H       0.153900     -2.211500      0.566400
  H       0.622200     -1.363700     -0.951300
  H       2.083200     -0.742300      0.778400
  H       1.818800      1.630900      0.880100
  H       1.512900      0.994600     -0.762700
  H      -2.059400      1.329100     -0.405100
  H      -0.740100      0.894900     -1.533100
15
Coordinates from ORCA-job file E -287.940293338010
  C      -1.169250     -0.600948      0.009100
  C       0.226875     -1.225365      0.060150
  N       1.106648     -0.353302      0.845660
  C       1.130344      0.992980      0.286004
  O      -0.148120      1.578061      0.331322
  C      -1.066272      0.845839     -0.470145
  H      -1.614580     -0.619115      1.009430
  H      -1.813732     -1.173008     -0.669160
  H       0.186124     -2.209230      0.538242
  H       0.600827     -1.366099     -0.972307
  H       2.048974     -0.724187      0.834559
  H       1.792527      1.621060      0.886530
  H       1.483998      0.996482     -0.767457
  H      -2.026345      1.361950     -0.398009
  H      -0.738017      0.875081     -1.524120
15
Coordinates from ORCA-job file E -287.940562076470
  C      -1.168907     -0.602267      0.013231
  C       0.229202     -1.223761      0.048524
  N       1.095417     -0.351996      0.845334
  C       1.132880      0.989904      0.282128
  O      -0.144596      1.581831      0.318612
  C      -1.069076      0.843130     -0.472553
  H      -1.598680     -0.616368      1.020373
  H      -1.824827     -1.174955     -0.653339
  H       0.200885     -2.215309      0.511243
  H       0.598724     -1.343224     -0.988434
  H       2.038091     -0.725801      0.886033
  H       1.793518      1.618184      0.884331
  H       1.485020      0.987708     -0.772109
  H      -2.025018      1.367377     -0.396445
  H      -0.742633      0.865745     -1.527130
15
Coordinates from ORCA-job file E -287.940626225125
  C      -1.168514     -0.603169      0.013992
  C       0.230640     -1.223267      0.042109
  N       1.090086     -0.350692      0.842804
  C       1.134977      0.988671      0.277907
  O      -0.142103      1.584456      0.311382
  C      -1.070369      0.842717     -0.473219
  H      -1.588629     -0.616002      1.025698
  H      -1.831390     -1.175278     -0.646855
  H       0.207856     -2.219255      0.496515
  H       0.599654     -1.332146     -0.996595
  H       2.028869     -0.726791      0.922756
  H       1.796567      1.616286      0.880618
  H       1.489252      0.983339     -0.775742
  H      -2.026367      1.367195     -0.391493
  H      -0.750527      0.864135     -1.530075
15
Coordinates from ORCA-job file E -287.940629561634
  C      -1.168320     -0.603236      0.013159
  C       0.230791     -1.223605      0.041951
  N       1.090515     -0.350339      0.841228
  C       1.135382      0.988891      0.276928
  O      -0.141696      1.584751      0.311302
  C      -1.070436      0.843242     -0.472682
  H      -1.588775     -0.617031      1.024687
  H      -1.830942     -1.174637     -0.648546
  H       0.207406     -2.219041      0.497443
  H       0.600152     -1.333992     -0.996438
  H       2.028547     -0.727154      0.927534
  H       1.797599      1.616160      0.879222
  H       1.489332      0.983979     -0.776763
  H      -2.026953      1.366361     -0.389134
  H      -0.752601      0.865849     -1.530091
15
Coordinates from ORCA-job file E -287.940629863769
  C      -1.168161     -0.603220      0.012870
  C       0.230901     -1.223652      0.042004
  N       1.090701     -0.350223      0.840859
  C       1.135470      0.988934      0.276594
  O      -0.141586      1.584817      0.311580
  C      -1.070440      0.843485     -0.472344
  H      -1.589293     -0.617658      1.024115
  H      -1.830277     -1.174372     -0.649564
  H       0.207064     -2.218739      0.498249
  H       0.600420     -1.334909     -0.996235
  H       2.028412     -0.727208      0.928580
  H       1.798104      1.616152      0.878476
  H       1.488985      0.984037     -0.777247
  H      -2.027150      1.366141     -0.388238
  H      -0.753149      0.866614     -1.529899
