7
Coordinates from ORCA-job file
  C   0.01530701565014     -0.94913766576581     -0.78020280148461
  C   0.73505034894375      0.10300597961556     -0.02409871888893
  C   -0.73676913722502     -0.01774401418648      0.09461448095970
  H   1.38977336345551     -0.25772808206696      0.77751730920689
  H   1.18029392433273      0.90024605227021     -0.63034695534920
  H   -1.39508162120462      0.68926044120357     -0.42332615818765
  H   -1.18857389395250     -0.46800271107010      0.98584284374380
