7
Coordinates from ORCA-job file E -116.402898421753
  C       0.015300     -0.981900     -0.808500
  C       0.751200      0.093600     -0.034100
  C      -0.752200     -0.029500      0.086900
  H       1.314800     -0.288400      0.842600
  H       1.092900      0.944800     -0.659200
  H      -1.321900      0.747200     -0.464800
  H      -1.100100     -0.485900      1.037100
7
Coordinates from ORCA-job file E -116.406998425704
  C       0.015205     -0.956123     -0.786738
  C       0.746823      0.105186     -0.023890
  C      -0.748170     -0.017250      0.096528
  H       1.339030     -0.282175      0.809706
  H       1.122282      0.918060     -0.651560
  H      -1.344972      0.716237     -0.452575
  H      -1.130198     -0.484036      1.008529
7
Coordinates from ORCA-job file E -116.408967935560
  C       0.015264     -0.935614     -0.769464
  C       0.739123      0.112408     -0.016827
  C      -0.740752     -0.008822      0.102458
  H       1.371399     -0.275537      0.783161
  H       1.158903      0.898806     -0.645811
  H      -1.376751      0.691347     -0.441267
  H      -1.167186     -0.482688      0.987750
7
Coordinates from ORCA-job file E -116.409369861369
  C       0.015292     -0.936218     -0.769745
  C       0.735937      0.111401     -0.017150
  C      -0.737638     -0.009380      0.101610
  H       1.386136     -0.269098      0.776333
  H       1.175055      0.895951     -0.640734
  H      -1.391185      0.685833     -0.433890
  H      -1.183596     -0.478588      0.983576
7
Coordinates from ORCA-job file E -116.409514044877
  C       0.015324     -0.943340     -0.775385
  C       0.734672      0.107372     -0.020262
  C      -0.736370     -0.013294      0.098278
  H       1.392069     -0.262065      0.775303
  H       1.181723      0.897507     -0.634641
  H      -1.396868      0.686311     -0.427048
  H      -1.190551     -0.472591      0.983755
7
Coordinates from ORCA-job file E -116.409540139305
  C       0.015334     -0.948086     -0.779237
  C       0.734704      0.104313     -0.022834
  C      -0.736389     -0.016394      0.095737
  H       1.391360     -0.258597      0.776598
  H       1.181359      0.899441     -0.631343
  H      -1.396218      0.688317     -0.423995
  H      -1.190150     -0.469093      0.985073
7
Coordinates from ORCA-job file E -116.409542780847
  C       0.015322     -0.949180     -0.780181
  C       0.734934      0.103243     -0.023819
  C      -0.736630     -0.017497      0.094834
  H       1.390175     -0.257803      0.777336
  H       1.180440      0.900131     -0.630481
  H      -1.395252      0.689147     -0.423371
  H      -1.188988     -0.468142      0.985681
7
Coordinates from ORCA-job file E -116.409543026255
  C       0.015307     -0.949138     -0.780203
  C       0.735050      0.103006     -0.024099
  C      -0.736769     -0.017744      0.094614
  H       1.389773     -0.257728      0.777517
  H       1.180294      0.900246     -0.630347
  H      -1.395082      0.689260     -0.423326
  H      -1.188574     -0.468003      0.985843
