10
Coordinates from ORCA-job file E -155.790633355338
  C      -0.008100     -1.252300     -0.639200
  C       1.066900     -0.261200     -0.230600
  C       0.004300      0.662900      0.338300
  C      -1.070700     -0.329100     -0.070600
  H       1.589200      0.171500     -1.110800
  H       1.740300     -0.676800      0.549500
  H       0.083200      0.777500      1.441700
  H      -0.067800      1.624400     -0.215800
  H      -1.744300      0.065700     -0.861400
  H      -1.593100     -0.782700      0.799000
10
Coordinates from ORCA-job file E -155.799287530567
  C      -0.008184     -1.272408     -0.649547
  C       1.055333     -0.260787     -0.229347
  C       0.004562      0.708913      0.361789
  C      -1.059142     -0.327979     -0.071080
  H       1.596648      0.123444     -1.101952
  H       1.742750     -0.697462      0.504702
  H       0.081328      0.845376      1.445325
  H      -0.065208      1.667141     -0.163042
  H      -1.747264      0.017317     -0.851686
  H      -1.600923     -0.803654      0.754939
10
Coordinates from ORCA-job file E -155.801115994442
  C      -0.008155     -1.272727     -0.649820
  C       1.051134     -0.258872     -0.227982
  C       0.004690      0.729051      0.372063
  C      -1.054912     -0.325804     -0.070375
  H       1.615200      0.094032     -1.098411
  H       1.758304     -0.710760      0.476345
  H       0.080267      0.884431      1.447511
  H      -0.063681      1.691801     -0.132796
  H      -1.763283     -0.013330     -0.845596
  H      -1.619663     -0.817923      0.729161
10
Coordinates from ORCA-job file E -155.801505766059
  C      -0.008117     -1.268635     -0.647840
  C       1.049160     -0.258171     -0.227429
  C       0.004705      0.731074      0.373084
  C      -1.052911     -0.324971     -0.070151
  H       1.628093      0.083605     -1.094682
  H       1.769651     -0.713192      0.463946
  H       0.079961      0.896228      1.448698
  H      -0.063226      1.699639     -0.124061
  H      -1.774878     -0.024678     -0.840068
  H      -1.632538     -0.820998      0.718603
10
Coordinates from ORCA-job file E -155.801617135539
  C      -0.008101     -1.265669     -0.646450
  C       1.047546     -0.258242     -0.227305
  C       0.004682      0.727421      0.371207
  C      -1.051281     -0.324934     -0.070290
  H       1.635374      0.081909     -1.090717
  H       1.776037     -0.710688      0.459267
  H       0.079818      0.896841      1.447544
  H      -0.063084      1.699010     -0.123037
  H      -1.781417     -0.026898     -0.835076
  H      -1.639674     -0.818850      0.714958
10
Coordinates from ORCA-job file E -155.801630776251
  C      -0.008111     -1.265727     -0.646586
  C       1.046890     -0.258670     -0.227459
  C       0.004665      0.724882      0.369899
  C      -1.050625     -0.325317     -0.070550
  H       1.636657      0.083666     -1.088952
  H       1.777068     -0.708269      0.459527
  H       0.079798      0.894359      1.446533
  H      -0.063105      1.696695     -0.124570
  H      -1.782546     -0.025224     -0.833124
  H      -1.640790     -0.816495      0.715382
10
Coordinates from ORCA-job file E -155.801632258640
  C      -0.008127     -1.266333     -0.647014
  C       1.046739     -0.258976     -0.227600
  C       0.004659      0.724175      0.369521
  C      -1.050478     -0.325609     -0.070717
  H       1.636795      0.084682     -1.088337
  H       1.777060     -0.707280      0.460041
  H       0.079798      0.893236      1.446193
  H      -0.063126      1.695730     -0.125391
  H      -1.782664     -0.024209     -0.832485
  H      -1.640756     -0.815517      0.715889
