10
Coordinates from ORCA-job file
  C   -0.00812704369166     -1.26633288242613     -0.64701368857059
  C   1.04673946205380     -0.25897559942990     -0.22759973275299
  C   0.00465863590989      0.72417512189082      0.36952091177139
  C   -1.05047835027700     -0.32560856155342     -0.07071678477976
  H   1.63679470282341      0.08468158254032     -1.08833664613745
  H   1.77706019838264     -0.70727989640463      0.46004053039606
  H   0.07979790292973      0.89323589118652      1.44619255306445
  H   -0.06312587857525      1.69573010287367     -0.12539147852449
  H   -1.78266369861278     -0.02420914331152     -0.83248512473459
  H   -1.64075593094279     -0.81551661536573      0.71588946026797
