27
Coordinates from ORCA-job file E -462.333653967611
  C      -1.866600     -0.121700      0.979500
  C      -1.630900      1.219900      0.202700
  C      -0.670800      0.959800     -1.001800
  N      -1.215600     -0.209800     -1.742900
  C      -1.090700     -1.467000     -0.935700
  C      -0.771800     -1.150400      0.561900
  C       0.567200     -0.359000      0.697200
  C       1.974500     -0.872000      0.861500
  N       2.818700      0.316700      0.559200
  C       1.947500      1.308200     -0.128900
  C       0.737700      0.503100     -0.524700
  H      -1.829000      0.062500      2.075500
  H      -2.879400     -0.522700      0.752800
  H      -2.601500      1.618100     -0.164100
  H      -1.183700      1.983300      0.875900
  H      -0.599100      1.845100     -1.668700
  H      -2.223200     -0.039900     -1.974000
  H      -0.279800     -2.096600     -1.360300
  H      -2.030600     -2.059100     -1.002700
  H      -0.789900     -2.058500      1.201200
  H       0.451800      0.285800      1.607400
  H       2.176600     -1.704900      0.149100
  H       2.158000     -1.220200      1.900700
  H       3.574600      0.020900     -0.102500
  H       1.669000      2.122700      0.575100
  H       2.452800      1.746900     -1.018500
  H       1.134300     -0.111200     -1.374900
27
Coordinates from ORCA-job file E -462.342957798704
  C      -1.853718     -0.108440      0.978385
  C      -1.607126      1.229695      0.214409
  C      -0.682115      0.954905     -0.991013
  N      -1.198179     -0.220028     -1.730462
  C      -1.051234     -1.462346     -0.925416
  C      -0.775232     -1.133793      0.557546
  C       0.546067     -0.362903      0.698747
  C       1.961072     -0.904359      0.854675
  N       2.788057      0.304079      0.538562
  C       1.924520      1.322670     -0.135993
  C       0.709402      0.500238     -0.539648
  H      -1.817607      0.058730      2.061406
  H      -2.852644     -0.501702      0.748734
  H      -2.560313      1.636630     -0.145540
  H      -1.163949      1.988099      0.873070
  H      -0.635671      1.818115     -1.665075
  H      -2.174532     -0.069937     -1.953374
  H      -0.241167     -2.079557     -1.338815
  H      -1.973062     -2.050814     -1.005733
  H      -0.813370     -2.036470      1.178948
  H       0.424967      0.300417      1.569634
  H       2.158621     -1.731358      0.156054
  H       2.168598     -1.251025      1.873185
  H       3.532472      0.038205     -0.090502
  H       1.664628      2.125253      0.568099
  H       2.448683      1.769019     -0.987558
  H       1.072932     -0.133325     -1.362324
27
Coordinates from ORCA-job file E -462.343574653442
  C      -1.861943     -0.104319      0.971714
  C      -1.594940      1.236217      0.224641
  C      -0.688293      0.952485     -0.990668
  N      -1.209293     -0.226272     -1.723294
  C      -1.036947     -1.465722     -0.922463
  C      -0.779859     -1.128872      0.560351
  C       0.542664     -0.359797      0.704314
  C       1.957099     -0.908173      0.848828
  N       2.779011      0.304029      0.539145
  C       1.919826      1.322142     -0.142328
  C       0.707006      0.496290     -0.548900
  H      -1.844219      0.051650      2.056360
  H      -2.856290     -0.494832      0.720813
  H      -2.540065      1.673370     -0.119833
  H      -1.130535      1.978156      0.886608
  H      -0.655781      1.806518     -1.676344
  H      -2.191891     -0.082984     -1.932662
  H      -0.210641     -2.062185     -1.332321
  H      -1.944182     -2.074235     -1.013120
  H      -0.828870     -2.032261      1.179433
  H       0.418919      0.321699      1.559441
  H       2.145063     -1.728973      0.140515
  H       2.178184     -1.266230      1.860186
  H       3.550840      0.052420     -0.065670
  H       1.659310      2.125001      0.560696
  H       2.455371      1.770856     -0.985497
  H       1.060554     -0.155976     -1.359945
27
Coordinates from ORCA-job file E -462.343716708578
  C      -1.866282     -0.102219      0.967371
  C      -1.586774      1.240331      0.229650
  C      -0.691344      0.950260     -0.993010
  N      -1.219318     -0.230352     -1.719444
  C      -1.034251     -1.469114     -0.920433
  C      -0.782434     -1.128671      0.562899
  C       0.540862     -0.360595      0.704552
  C       1.955260     -0.909841      0.842217
  N       2.769634      0.309034      0.548314
  C       1.916862      1.321291     -0.148907
  C       0.704946      0.493302     -0.554155
  H      -1.863809      0.047755      2.053185
  H      -2.857851     -0.489324      0.699786
  H      -2.527118      1.698379     -0.100934
  H      -1.102764      1.967487      0.894082
  H      -0.662706      1.800670     -1.683707
  H      -2.205085     -0.089898     -1.913760
  H      -0.198778     -2.053368     -1.329237
  H      -1.932708     -2.089846     -1.016154
  H      -0.834768     -2.030284      1.184616
  H       0.419759      0.326369      1.556162
  H       2.140254     -1.721314      0.121622
  H       2.181682     -1.281489      1.847771
  H       3.568967      0.072454     -0.024795
  H       1.652886      2.130664      0.545807
  H       2.458448      1.763558     -0.992109
  H       1.056531     -0.165237     -1.361384
27
Coordinates from ORCA-job file E -462.343770202782
  C      -1.866990     -0.101589      0.966221
  C      -1.582674      1.241639      0.231694
  C      -0.692532      0.948795     -0.994432
  N      -1.224898     -0.231707     -1.718425
  C      -1.036396     -1.470628     -0.919909
  C      -0.783765     -1.129872      0.563327
  C       0.540262     -0.363071      0.702582
  C       1.954972     -0.911104      0.837455
  N       2.761202      0.315009      0.559761
  C       1.915180      1.320401     -0.154386
  C       0.703765      0.490486     -0.557102
  H      -1.870488      0.046208      2.052373
  H      -2.857846     -0.486179      0.692142
  H      -2.521130      1.708555     -0.091762
  H      -1.088803      1.961473      0.896757
  H      -0.663713      1.798574     -1.685943
  H      -2.212839     -0.090948     -1.902644
  H      -0.199105     -2.051603     -1.329525
  H      -1.932677     -2.094396     -1.016351
  H      -0.836385     -2.030305      1.186725
  H       0.422465      0.323552      1.554793
  H       2.142267     -1.714001      0.107455
  H       2.181817     -1.293431      1.839014
  H       3.585088      0.092034      0.016586
  H       1.648525      2.138757      0.528911
  H       2.460051      1.751834     -1.001261
  H       1.054747     -0.168481     -1.364058
27
Coordinates from ORCA-job file E -462.343794078749
  C      -1.865624     -0.102102      0.967240
  C      -1.581220      1.241208      0.232570
  C      -0.692581      0.948130     -0.994733
  N      -1.227915     -0.230946     -1.718815
  C      -1.040369     -1.470698     -0.921020
  C      -0.784280     -1.131575      0.562054
  C       0.540297     -0.365784      0.700157
  C       1.955558     -0.911790      0.835144
  N       2.754798      0.320161      0.569814
  C       1.914808      1.319374     -0.158932
  C       0.703444      0.487973     -0.558713
  H      -1.867398      0.045467      2.053452
  H      -2.857477     -0.485191      0.694566
  H      -2.519854      1.708832     -0.089335
  H      -1.085518      1.960059      0.897320
  H      -0.662528      1.798819     -1.685073
  H      -2.216320     -0.088270     -1.898695
  H      -0.205148     -2.053275     -1.332570
  H      -1.938258     -2.092442     -1.015919
  H      -0.836279     -2.032089      1.185367
  H       0.424321      0.319185      1.553887
  H       2.147384     -1.708782      0.099567
  H       2.180747     -1.300454      1.834690
  H       3.597257      0.108268      0.051721
  H       1.646919      2.146512      0.513379
  H       2.461725      1.739415     -1.010333
  H       1.053611     -0.170006     -1.366791
27
Coordinates from ORCA-job file E -462.343799249113
  C      -1.864271     -0.102754      0.968562
  C      -1.581619      1.240404      0.232597
  C      -0.692280      0.948178     -0.994333
  N      -1.228263     -0.229815     -1.719367
  C      -1.042630     -1.470178     -0.922106
  C      -0.784231     -1.132448      0.560824
  C       0.540467     -0.366949      0.699127
  C       1.956044     -0.911917      0.835050
  N       2.752819      0.322019      0.573578
  C       1.915206      1.318894     -0.160584
  C       0.703592      0.487073     -0.558941
  H      -1.861919      0.045388      2.054680
  H      -2.857243     -0.485636      0.699815
  H      -2.521114      1.705187     -0.090886
  H      -1.088361      1.961417      0.896837
  H      -0.661593      1.799711     -1.683580
  H      -2.216259     -0.085725     -1.900348
  H      -0.209637     -2.055072     -1.334930
  H      -1.942463     -2.089326     -1.015586
  H      -0.835808     -2.033593      1.183244
  H       0.424412      0.317195      1.553469
  H       2.150348     -1.707433      0.098472
  H       2.179980     -1.301677      1.834434
  H       3.601658      0.113861      0.064478
  H       1.647496      2.149707      0.507281
  H       2.462734      1.733892     -1.014081
  H       1.053037     -0.170406     -1.367705
27
Coordinates from ORCA-job file E -462.343799780984
  C      -1.863849     -0.102904      0.969086
  C      -1.582049      1.240116      0.232454
  C      -0.692168      0.948277     -0.994131
  N      -1.227915     -0.229492     -1.719550
  C      -1.043065     -1.469958     -0.922361
  C      -0.784147     -1.132538      0.560522
  C       0.540547     -0.367049      0.699054
  C       1.956140     -0.911959      0.835183
  N       2.752816      0.322067      0.573848
  C       1.915408      1.318866     -0.160589
  C       0.703710      0.487072     -0.558840
  H      -1.859721      0.045593      2.055144
  H      -2.857204     -0.485949      0.702058
  H      -2.521911      1.703467     -0.092016
  H      -1.090208      1.962334      0.896450
  H      -0.661466      1.800007     -1.683129
  H      -2.215560     -0.085075     -1.902051
  H      -0.210761     -2.055681     -1.335424
  H      -1.943531     -2.088248     -1.015422
  H      -0.835664     -2.033958      1.182550
  H       0.424234      0.317068      1.553391
  H       2.150739     -1.707535      0.098756
  H       2.179859     -1.301531      1.834680
  H       3.602009      0.114058      0.065321
  H       1.647911      2.149994      0.506967
  H       2.463003      1.733388     -1.014269
  H       1.052942     -0.170429     -1.367681
