27
Coordinates from ORCA-job file
  C   -1.86384888065603     -0.10290380079977      0.96908627610881
  C   -1.58204867204541      1.24011623463183      0.23245367481314
  C   -0.69216793008263      0.94827719190762     -0.99413110529876
  N   -1.22791467926132     -0.22949227245582     -1.71955044533149
  C   -1.04306518262152     -1.46995773198889     -0.92236067431573
  C   -0.78414722910640     -1.13253798416222      0.56052207933152
  C   0.54054713826887     -0.36704917456901      0.69905431742343
  C   1.95614016003450     -0.91195865000223      0.83518313389809
  N   2.75281617217698      0.32206700962368      0.57384760328007
  C   1.91540766510603      1.31886570690554     -0.16058949441897
  C   0.70370961544770      0.48707169344643     -0.55883979208582
  H   -1.85972080843041      0.04559313926427      2.05514371013243
  H   -2.85720399314986     -0.48594873646353      0.70205838642045
  H   -2.52191142847694      1.70346650994197     -0.09201574976293
  H   -1.09020776577925      1.96233377312228      0.89645007389264
  H   -0.66146615193361      1.80000726412736     -1.68312904872432
  H   -2.21555979722747     -0.08507483415373     -1.90205064595169
  H   -0.21076132451333     -2.05568130152832     -1.33542442602338
  H   -1.94353086835534     -2.08824844174328     -1.01542175815794
  H   -0.83566370646040     -2.03395800236177      1.18254987479574
  H   0.42423436002145      0.31706816859094      1.55339134978042
  H   2.15073851243719     -1.70753480474839      0.09875552315119
  H   2.17985935124409     -1.30153116396363      1.83467995289306
  H   3.60200938151270      0.11405770107878      0.06532054818768
  H   1.64791144614567      2.14999361223041      0.50696747971048
  H   2.46300278944645      1.73338807500695     -1.01426935132686
  H   1.05294182625827     -0.17042918093745     -1.36768149242123
