25
Coordinates from ORCA-job file E -989.961968733949
  C       3.477500      1.018300      1.574100
  C       2.254000      0.406600      0.958700
  C       2.100100      0.383200     -0.435400
  C       0.977700     -0.219600     -1.010600
  C      -0.004500     -0.807700     -0.200200
  S      -1.419100     -1.583800     -0.930300
  O      -1.842600     -2.735000     -0.061300
  O      -1.029600     -2.136500     -2.272800
  N      -2.785000     -0.505800     -1.140700
  C      -3.069600      0.249700      0.082700
  C      -2.641500      1.566900     -0.527100
  C      -2.385900      0.752900     -1.777000
  C       0.168000     -0.815600      1.191700
  C       1.290200     -0.213100      1.767900
  H       3.249700      1.416400      2.585900
  H       3.850900      1.858700      0.950800
  H       4.272600      0.248500      1.658100
  H       2.849800      0.829400     -1.077200
  H       0.878800     -0.230200     -2.088400
  H      -4.158400      0.242800      0.304000
  H      -2.455600     -0.029300      0.963500
  H      -1.327400      0.801100     -2.105400
  H      -3.095400      1.025200     -2.587600
  H      -0.562800     -1.291300      1.832900
  H       1.408100     -0.231800      2.844300
25
Coordinates from ORCA-job file E -989.983794742119
  C       3.423502      1.039287      1.561979
  C       2.206843      0.407468      0.941615
  C       2.052652      0.377963     -0.451476
  C       0.946154     -0.239043     -1.029774
  C      -0.020038     -0.832044     -0.214597
  S      -1.412453     -1.644150     -0.943689
  O      -1.858637     -2.709095     -0.020900
  O      -1.027977     -2.101025     -2.296113
  N      -2.710538     -0.526115     -1.117403
  C      -2.990645      0.256156      0.111410
  C      -2.563598      1.572505     -0.499826
  C      -2.311486      0.756101     -1.748135
  C       0.136196     -0.837261      1.172908
  C       1.244973     -0.219505      1.745457
  H       3.194764      1.432030      2.563455
  H       3.791255      1.872139      0.945137
  H       4.226129      0.290229      1.654659
  H       2.804429      0.834111     -1.095411
  H       0.845746     -0.269115     -2.115632
  H      -4.070346      0.263329      0.347914
  H      -2.396264     -0.015753      1.001775
  H      -1.264835      0.816842     -2.095518
  H      -3.010149      1.043586     -2.554912
  H      -0.597331     -1.335272      1.808706
  H       1.361651     -0.233367      2.828973
25
Coordinates from ORCA-job file E -989.993060703491
  C       3.410857      1.043807      1.560391
  C       2.197601      0.403777      0.937276
  C       2.031489      0.384617     -0.453707
  C       0.934261     -0.242464     -1.035809
  C      -0.018898     -0.843921     -0.214738
  S      -1.410522     -1.677443     -0.937233
  O      -1.885408     -2.640467      0.032711
  O      -1.036050     -2.065498     -2.280006
  N      -2.648603     -0.545491     -1.102260
  C      -2.970501      0.265216      0.108182
  C      -2.578668      1.575055     -0.521770
  C      -2.288465      0.752265     -1.748486
  C       0.138034     -0.862493      1.169379
  C       1.243593     -0.238628      1.736075
  H       3.186843      1.418483      2.566705
  H       3.771816      1.883138      0.953717
  H       4.224812      0.308902      1.645395
  H       2.778335      0.857352     -1.095611
  H       0.824064     -0.279813     -2.122101
  H      -4.049275      0.253357      0.342250
  H      -2.404747      0.027843      1.023701
  H      -1.252720      0.852638     -2.111218
  H      -2.980351      1.017786     -2.566691
  H      -0.588285     -1.387045      1.794026
  H       1.370788     -0.260971      2.820422
25
Coordinates from ORCA-job file E -989.994637235960
  C       3.413914      1.044683      1.565158
  C       2.205922      0.393357      0.944950
  C       2.023892      0.392886     -0.443932
  C       0.929634     -0.240492     -1.025895
  C      -0.010798     -0.862262     -0.203943
  S      -1.415715     -1.687598     -0.928082
  O      -1.911099     -2.628731      0.049976
  O      -1.042290     -2.051336     -2.274084
  N      -2.623731     -0.535928     -1.090221
  C      -2.965944      0.295366      0.097813
  C      -2.643218      1.596667     -0.577970
  C      -2.303932      0.751652     -1.771697
  C       0.158965     -0.897596      1.179543
  C       1.262261     -0.264478      1.743549
  H       3.194418      1.402664      2.579122
  H       3.760134      1.895423      0.964461
  H       4.241615      0.322879      1.636681
  H       2.759862      0.884669     -1.084154
  H       0.813362     -0.277327     -2.110995
  H      -4.039575      0.245461      0.353837
  H      -2.389519      0.106487      1.019726
  H      -1.272002      0.881502     -2.139396
  H      -2.990610      0.969425     -2.609465
  H      -0.555062     -1.443728      1.798930
  H       1.399515     -0.293646      2.826690
25
Coordinates from ORCA-job file E -989.995759402127
  C       3.413064      1.048025      1.565788
  C       2.211177      0.384879      0.948954
  C       2.018283      0.395298     -0.438582
  C       0.927691     -0.245944     -1.019431
  C       0.000529     -0.887346     -0.196716
  S      -1.421641     -1.693603     -0.921375
  O      -1.938325     -2.620589      0.064081
  O      -1.053798     -2.051552     -2.273821
  N      -2.592986     -0.513411     -1.075954
  C      -2.969980      0.321953      0.090244
  C      -2.730854      1.615031     -0.628133
  C      -2.308464      0.758871     -1.782943
  C       0.177457     -0.929204      1.186401
  C       1.279182     -0.289193      1.748075
  H       3.198058      1.389493      2.586910
  H       3.742998      1.909890      0.970850
  H       4.254931      0.340462      1.623593
  H       2.744598      0.903040     -1.077010
  H       0.805676     -0.282963     -2.103475
  H      -4.034294      0.218360      0.372570
  H      -2.378808      0.188484      1.014949
  H      -1.272546      0.926219     -2.129411
  H      -2.966701      0.923594     -2.656436
  H      -0.529677     -1.488481      1.801479
  H       1.424427     -0.321313      2.829992
25
Coordinates from ORCA-job file E -989.996557239766
  C       3.419049      1.041310      1.573854
  C       2.218650      0.377520      0.956425
  C       2.021578      0.397272     -0.430845
  C       0.932938     -0.245954     -1.012995
  C       0.012741     -0.898733     -0.191241
  S      -1.419147     -1.688632     -0.915987
  O      -1.943822     -2.614227      0.070592
  O      -1.060743     -2.049038     -2.273557
  N      -2.569466     -0.493478     -1.059302
  C      -2.974410      0.347033      0.084156
  C      -2.832298      1.623737     -0.687279
  C      -2.338976      0.757542     -1.805414
  C       0.191721     -0.947262      1.190955
  C       1.292820     -0.307208      1.753739
  H       3.209872      1.364100      2.602311
  H       3.737899      1.914452      0.989298
  H       4.268966      0.341858      1.614725
  H       2.743839      0.914600     -1.066081
  H       0.806758     -0.279251     -2.096779
  H      -4.018134      0.183398      0.412196
  H      -2.350148      0.288218      0.996442
  H      -1.304779      0.971676     -2.134070
  H      -2.973367      0.859621     -2.706175
  H      -0.514722     -1.512918      1.800960
  H       1.443181     -0.345637      2.834672
25
Coordinates from ORCA-job file E -989.997246071605
  C       3.425652      1.034404      1.576072
  C       2.224578      0.370482      0.960400
  C       2.019144      0.402375     -0.425877
  C       0.929922     -0.240873     -1.006526
  C       0.020874     -0.907532     -0.183653
  S      -1.417298     -1.683463     -0.903221
  O      -1.949283     -2.605924      0.084305
  O      -1.070491     -2.059975     -2.261154
  N      -2.546894     -0.474316     -1.046794
  C      -2.993067      0.365352      0.073040
  C      -2.919842      1.624979     -0.740044
  C      -2.352698      0.756242     -1.823739
  C       0.206671     -0.966106      1.196602
  C       1.308250     -0.326444      1.758096
  H       3.226036      1.334441      2.613265
  H       3.728242      1.922071      1.004807
  H       4.283860      0.344109      1.592233
  H       2.734333      0.930987     -1.059758
  H       0.792807     -0.261907     -2.089439
  H      -4.015488      0.148503      0.434060
  H      -2.345858      0.381654      0.972544
  H      -1.314907      1.017187     -2.109057
  H      -2.944068      0.804851     -2.757223
  H      -0.497042     -1.537675      1.804203
  H       1.466565     -0.373424      2.837457
25
Coordinates from ORCA-job file E -989.997896308770
  C       3.426054      1.035978      1.567535
  C       2.227746      0.366303      0.951702
  C       2.034566      0.378981     -0.436851
  C       0.946381     -0.266812     -1.016273
  C       0.029373     -0.918358     -0.189762
  S      -1.412665     -1.679681     -0.905196
  O      -1.947933     -2.605777      0.075711
  O      -1.081966     -2.063566     -2.264249
  N      -2.524524     -0.456894     -1.037767
  C      -3.029869      0.348477      0.075408
  C      -2.993661      1.615337     -0.736176
  C      -2.345429      0.777997     -1.804813
  C       0.203609     -0.958729      1.192071
  C       1.303567     -0.315872      1.752803
  H       3.223132      1.338827      2.603247
  H       3.725719      1.923389      0.994142
  H       4.286623      0.348853      1.585685
  H       2.756529      0.896506     -1.072127
  H       0.814117     -0.297825     -2.099558
  H      -4.034936      0.075208      0.442623
  H      -2.374795      0.414335      0.968570
  H      -1.301770      1.092825     -2.005796
  H      -2.870906      0.809961     -2.776407
  H      -0.511619     -1.512707      1.802152
  H       1.452656     -0.346757      2.833927
25
Coordinates from ORCA-job file E -989.998396273595
  C       3.434631      1.032576      1.556834
  C       2.233135      0.365247      0.943067
  C       2.050376      0.358098     -0.446919
  C       0.960146     -0.286308     -1.024320
  C       0.033028     -0.919786     -0.194620
  S      -1.408527     -1.677632     -0.908341
  O      -1.947490     -2.604369      0.067875
  O      -1.084513     -2.064503     -2.266324
  N      -2.512284     -0.448127     -1.036219
  C      -3.074035      0.322417      0.071631
  C      -3.078001      1.594896     -0.736554
  C      -2.337880      0.798764     -1.781873
  C       0.196338     -0.939140      1.189378
  C       1.297183     -0.295451      1.748162
  H       3.232295      1.340748      2.590949
  H       3.736730      1.917269      0.980459
  H       4.292160      0.341900      1.576172
  H       2.782590      0.857251     -1.085227
  H       0.833984     -0.329284     -2.107905
  H      -4.058941     -0.007916      0.441951
  H      -2.413995      0.440632      0.957162
  H      -1.294984      1.166840     -1.877931
  H      -2.783395      0.825494     -2.791184
  H      -0.526744     -1.478104      1.803655
  H       1.438193     -0.311513      2.830720
25
Coordinates from ORCA-job file E -989.998765021932
  C       3.449556      1.021305      1.552043
  C       2.240026      0.363395      0.942373
  C       2.052035      0.359081     -0.446731
  C       0.957431     -0.280577     -1.021580
  C       0.030657     -0.912811     -0.190481
  S      -1.407330     -1.677832     -0.901974
  O      -1.952255     -2.596206      0.077160
  O      -1.078869     -2.074490     -2.254213
  N      -2.511967     -0.447585     -1.040856
  C      -3.107406      0.312960      0.056165
  C      -3.161139      1.571105     -0.775396
  C      -2.343137      0.800881     -1.785055
  C       0.197464     -0.931472      1.193755
  C       1.302477     -0.291923      1.749723
  H       3.259294      1.314840      2.592516
  H       3.743989      1.915050      0.985843
  H       4.306047      0.329391      1.549404
  H       2.784998      0.853263     -1.088176
  H       0.827078     -0.318408     -2.104860
  H      -4.062650     -0.063819      0.454561
  H      -2.428280      0.505717      0.915526
  H      -1.312311      1.217240     -1.779593
  H      -2.709583      0.811875     -2.823934
  H      -0.522110     -1.470473      1.812378
  H       1.445985     -0.310510      2.832002
25
Coordinates from ORCA-job file E -989.998925860041
  C       3.440653      1.023595      1.550901
  C       2.232885      0.360523      0.943414
  C       2.032796      0.370993     -0.443835
  C       0.939200     -0.271532     -1.017439
  C       0.023675     -0.920680     -0.187045
  S      -1.416177     -1.688238     -0.894759
  O      -1.970802     -2.590141      0.093409
  O      -1.082907     -2.094213     -2.242126
  N      -2.515260     -0.451285     -1.045273
  C      -3.093788      0.328591      0.048887
  C      -3.172371      1.566452     -0.809794
  C      -2.334385      0.791112     -1.797732
  C       0.202103     -0.953023      1.195480
  C       1.306697     -0.311576      1.749947
  H       3.261135      1.289629      2.600635
  H       3.711654      1.935356      1.002002
  H       4.307193      0.345307      1.518558
  H       2.754145      0.880491     -1.086520
  H       0.798975     -0.293665     -2.099923
  H      -4.026409     -0.053948      0.491209
  H      -2.381734      0.568052      0.870503
  H      -1.308864      1.219305     -1.737570
  H      -2.656991      0.790999     -2.849837
  H      -0.508013     -1.501896      1.816362
  H       1.456588     -0.340209      2.831143
25
Coordinates from ORCA-job file E -989.999110905660
  C       3.429460      1.029845      1.548108
  C       2.225322      0.362392      0.939344
  C       2.029049      0.367005     -0.448557
  C       0.937125     -0.277631     -1.022798
  C       0.018011     -0.922130     -0.192742
  S      -1.421956     -1.693807     -0.900468
  O      -1.976794     -2.589894      0.093237
  O      -1.084142     -2.098661     -2.247534
  N      -2.526923     -0.458864     -1.053806
  C      -3.080783      0.324498      0.053259
  C      -3.150481      1.568274     -0.794159
  C      -2.323515      0.792936     -1.787267
  C       0.193446     -0.950079      1.189805
  C       1.296657     -0.307215      1.745111
  H       3.248500      1.292807      2.598381
  H       3.696705      1.943590      1.000747
  H       4.298867      0.355298      1.515042
  H       2.750926      0.874941     -1.091870
  H       0.802548     -0.306707     -2.105890
  H      -4.010081     -0.050558      0.508425
  H      -2.350726      0.552696      0.862823
  H      -1.293653      1.207909     -1.703744
  H      -2.630967      0.809576     -2.843714
  H      -0.518987     -1.494350      1.811929
  H       1.442390     -0.331870      2.826938
25
Coordinates from ORCA-job file E -989.999257187390
  C       3.408840      1.039965      1.546540
  C       2.209412      0.367324      0.935480
  C       2.017453      0.367320     -0.453341
  C       0.928383     -0.280544     -1.029179
  C       0.006860     -0.922862     -0.200002
  S      -1.431720     -1.700562     -0.908205
  O      -1.984047     -2.594151      0.090491
  O      -1.089441     -2.104886     -2.255508
  N      -2.545157     -0.469650     -1.064236
  C      -3.046148      0.324199      0.063703
  C      -3.090476      1.578307     -0.766023
  C      -2.307334      0.789580     -1.778455
  C       0.178658     -0.947717      1.182706
  C       1.279723     -0.302663      1.739787
  H       3.226586      1.296526      2.598131
  H       3.670779      1.957291      1.002646
  H       4.283075      0.371636      1.511288
  H       2.740022      0.874952     -1.096133
  H       0.799138     -0.315955     -2.112795
  H      -3.975013     -0.025034      0.539506
  H      -2.288935      0.514886      0.858075
  H      -1.263379      1.169280     -1.695563
  H      -2.615759      0.831040     -2.834069
  H      -0.534544     -1.492149      1.803809
  H       1.423025     -0.326131      2.821948
25
Coordinates from ORCA-job file E -989.999346521819
  C       3.403012      1.041262      1.548988
  C       2.205749      0.368117      0.934396
  C       2.024817      0.357045     -0.456002
  C       0.937393     -0.290931     -1.034740
  C       0.006929     -0.922067     -0.206731
  S      -1.430002     -1.698884     -0.918297
  O      -1.975905     -2.603206      0.074475
  O      -1.090874     -2.093539     -2.269481
  N      -2.547527     -0.470304     -1.061701
  C      -3.033052      0.319865      0.074903
  C      -3.090688      1.575658     -0.751414
  C      -2.316336      0.791359     -1.773377
  C       0.168427     -0.937335      1.177329
  C       1.267757     -0.291759      1.737372
  H       3.215601      1.302644      2.598498
  H       3.670129      1.955437      1.002205
  H       4.276828      0.371875      1.521907
  H       2.755109      0.856089     -1.096764
  H       0.815823     -0.335977     -2.118881
  H      -3.951880     -0.031348      0.568390
  H      -2.263768      0.508153      0.858474
  H      -1.272098      1.171903     -1.697178
  H      -2.626822      0.837455     -2.828191
  H      -0.552267     -1.474770      1.795819
  H       1.403644     -0.306742      2.820603
25
Coordinates from ORCA-job file E -989.999363664740
  C       3.395235      1.044554      1.547902
  C       2.198806      0.369544      0.933424
  C       2.019366      0.357111     -0.457192
  C       0.932923     -0.292168     -1.036170
  C       0.003686     -0.924930     -0.207985
  S      -1.432031     -1.701541     -0.919927
  O      -1.975379     -2.612234      0.068689
  O      -1.095989     -2.095246     -2.272314
  N      -2.547988     -0.470371     -1.060094
  C      -3.021493      0.322748      0.079116
  C      -3.072252      1.580200     -0.745872
  C      -2.309597      0.789564     -1.772227
  C       0.163767     -0.939029      1.176553
  C       1.261406     -0.290633      1.736830
  H       3.210004      1.300125      2.599156
  H       3.657359      1.962259      1.004590
  H       4.272370      0.379753      1.515181
  H       2.750626      0.856152     -1.096883
  H       0.809590     -0.336513     -2.120144
  H      -3.937621     -0.020416      0.583011
  H      -2.245859      0.502509      0.858690
  H      -1.261598      1.161167     -1.698975
  H      -2.615839      0.840164     -2.827894
  H      -0.556952     -1.478902      1.793065
  H       1.397459     -0.303867      2.820072
25
Coordinates from ORCA-job file E -989.999369140944
  C       3.396098      1.043967      1.548855
  C       2.199540      0.368884      0.934439
  C       2.019554      0.357656     -0.456029
  C       0.933113     -0.291561     -1.035132
  C       0.004503     -0.925511     -0.207164
  S      -1.431030     -1.701712     -0.919539
  O      -1.973616     -2.614566      0.066950
  O      -1.096314     -2.093224     -2.272514
  N      -2.547010     -0.470122     -1.057744
  C      -3.021801      0.325908      0.078830
  C      -3.074853      1.581021     -0.749716
  C      -2.312596      0.787666     -1.774754
  C       0.165344     -0.940882      1.177404
  C       1.262826     -0.292392      1.737729
  H       3.212088      1.297095      2.600902
  H       3.656127      1.963371      1.007424
  H       4.273955      0.380356      1.513119
  H       2.750587      0.857510     -1.095363
  H       0.808725     -0.334499     -2.119036
  H      -3.937223     -0.016857      0.584307
  H      -2.246811      0.510248      0.857966
  H      -1.265048      1.161391     -1.704750
  H      -2.620631      0.834192     -2.830078
  H      -0.554864     -1.481887      1.793573
  H       1.399336     -0.306051      2.820922
25
Coordinates from ORCA-job file E -989.999376298802
  C       3.394077      1.044810      1.549405
  C       2.198212      0.368746      0.934629
  C       2.018969      0.357134     -0.455881
  C       0.932955     -0.292491     -1.035386
  C       0.004085     -0.926595     -0.207802
  S      -1.431268     -1.702710     -0.920746
  O      -1.972496     -2.618065      0.063757
  O      -1.097876     -2.090352     -2.274943
  N      -2.547774     -0.470872     -1.055869
  C      -3.017766      0.328451      0.080514
  C      -3.071333      1.582181     -0.749595
  C      -2.313094      0.785731     -1.775000
  C       0.164454     -0.941756      1.176879
  C       1.261334     -0.292734      1.737588
  H       3.210842      1.294957      2.602303
  H       3.651260      1.966335      1.010201
  H       4.273273      0.383192      1.510663
  H       2.750245      0.857175     -1.094793
  H       0.808910     -0.335745     -2.119314
  H      -3.931769     -0.011875      0.590231
  H      -2.240035      0.513987      0.856759
  H      -1.264846      1.158100     -1.706395
  H      -2.621753      0.831152     -2.830193
  H      -0.555906     -1.482923      1.792735
  H       1.397301     -0.305833      2.820852
25
Coordinates from ORCA-job file E -989.999379934723
  C       3.393706      1.045102      1.549285
  C       2.198007      0.368747      0.934513
  C       2.019206      0.356494     -0.456042
  C       0.933228     -0.293198     -1.035569
  C       0.003989     -0.926874     -0.208062
  S      -1.431412     -1.702931     -0.921165
  O      -1.971625     -2.619842      0.062442
  O      -1.098661     -2.088198     -2.276281
  N      -2.548316     -0.471182     -1.054972
  C      -3.017664      0.328971      0.081022
  C      -3.070690      1.582200     -0.749553
  C      -2.312572      0.785098     -1.774365
  C       0.164043     -0.941478      1.176663
  C       1.260738     -0.292263      1.737455
  H       3.211234      1.293338      2.602761
  H       3.649135      1.967957      1.011504
  H       4.273552      0.384503      1.508416
  H       2.750729      0.856203     -1.094928
  H       0.809617     -0.337151     -2.119523
  H      -3.931855     -0.010521      0.590994
  H      -2.239878      0.514984      0.857150
  H      -1.264212      1.157020     -1.704684
  H      -2.620244      0.830265     -2.829863
  H      -0.556474     -1.482297      1.792648
  H       1.396418     -0.304947      2.820755
