25
Coordinates from ORCA-job file
  C   3.39370603595493      1.04510226094383      1.54928476141324
  C   2.19800686679278      0.36874715579299      0.93451268476295
  C   2.01920553476216      0.35649356050320     -0.45604210834898
  C   0.93322805356114     -0.29319775123997     -1.03556863694955
  C   0.00398867452962     -0.92687367511144     -0.20806183195108
  S   -1.43141174922122     -1.70293124046986     -0.92116461963353
  O   -1.97162469744217     -2.61984154794524      0.06244164415143
  O   -1.09866121844600     -2.08819832139493     -2.27628131940758
  N   -2.54831552495481     -0.47118240742002     -1.05497249922841
  C   -3.01766377342829      0.32897088353502      0.08102207387261
  C   -3.07068994497829      1.58220030117490     -0.74955309857473
  C   -2.31257208598433      0.78509799298555     -1.77436488443924
  C   0.16404258382865     -0.94147806517281      1.17666260295799
  C   1.26073842180619     -0.29226346587225      1.73745472338660
  H   3.21123445327257      1.29333821944704      2.60276130515243
  H   3.64913457049279      1.96795652024387      1.01150393140444
  H   4.27355227528142      0.38450345182826      1.50841648272349
  H   2.75072915994319      0.85620338841443     -1.09492825969791
  H   0.80961700587862     -0.33715056391710     -2.11952314653273
  H   -3.93185513614528     -0.01052146001839      0.59099367209124
  H   -2.23987753394385      0.51498397213291      0.85715025949443
  H   -1.26421192467281      1.15701960402065     -1.70468406529290
  H   -2.62024370723173      0.83026456247325     -2.82986255930727
  H   -0.55647387757821     -1.48229687101698      1.79264827011990
  H   1.39641753792294     -0.30494650391691      2.82075461783314
