14
Coordinates from ORCA-job file E -303.919294432183
  C      -0.524600     -0.980800     -0.494100
  C      -1.209500      0.331600     -0.103600
  N      -0.224000      1.411300     -0.188200
  O       0.771300      1.160900      0.711700
  C       1.525200      0.079300      0.203500
  N       0.731500     -1.156900      0.247300
  H      -0.308300     -0.976400     -1.585000
  H      -1.205900     -1.834300     -0.286900
  H      -2.049900      0.535200     -0.801500
  H      -1.612600      0.257500      0.931600
  H      -0.693100      2.294000      0.118800
  H       2.430600     -0.049700      0.833500
  H       1.874300      0.282300     -0.835600
  H       0.495000     -1.353900      1.248600
14
Coordinates from ORCA-job file E -303.926834476997
  C      -0.521526     -0.973704     -0.490707
  C      -1.225607      0.329721     -0.091828
  N      -0.250283      1.416507     -0.226732
  O       0.795862      1.185053      0.705786
  C       1.518008      0.057107      0.216309
  N       0.736294     -1.156262      0.244564
  H      -0.296667     -0.949622     -1.563908
  H      -1.171933     -1.833854     -0.302031
  H      -2.059651      0.546105     -0.769740
  H      -1.611389      0.250471      0.938161
  H      -0.659890      2.289423      0.084626
  H       2.394696     -0.043585      0.859791
  H       1.829824      0.259556     -0.815620
  H       0.522261     -1.376817      1.211429
14
Coordinates from ORCA-job file E -303.927170124157
  C      -0.524059     -0.971020     -0.490803
  C      -1.230260      0.328636     -0.085409
  N      -0.258648      1.416237     -0.249566
  O       0.798544      1.193799      0.691953
  C       1.518745      0.053745      0.219028
  N       0.732335     -1.156223      0.243941
  H      -0.289145     -0.930175     -1.561326
  H      -1.169910     -1.838019     -0.319322
  H      -2.076230      0.540524     -0.750088
  H      -1.594102      0.256201      0.952241
  H      -0.657216      2.294902      0.070612
  H       2.382274     -0.040286      0.881061
  H       1.838164      0.250981     -0.812046
  H       0.529507     -1.399203      1.209825
14
Coordinates from ORCA-job file E -303.927192110621
  C      -0.525106     -0.970059     -0.490503
  C      -1.231932      0.329420     -0.085084
  N      -0.262100      1.418200     -0.255986
  O       0.798492      1.195518      0.687354
  C       1.519382      0.053451      0.219652
  N       0.731257     -1.155218      0.243158
  H      -0.288807     -0.926057     -1.560877
  H      -1.170268     -1.838502     -0.322204
  H      -2.083139      0.536979     -0.744718
  H      -1.588454      0.260012      0.955427
  H      -0.657647      2.296301      0.067918
  H       2.378265     -0.040288      0.888540
  H       1.845976      0.248092     -0.809821
  H       0.534080     -1.407751      1.207244
14
Coordinates from ORCA-job file E -303.927192372210
  C      -0.525346     -0.969924     -0.490635
  C      -1.231959      0.329547     -0.085049
  N      -0.262267      1.418181     -0.256738
  O       0.798552      1.196083      0.686699
  C       1.519486      0.053791      0.219926
  N       0.731211     -1.154756      0.242562
  H      -0.289897     -0.926262     -1.561206
  H      -1.170490     -1.838225     -0.321693
  H      -2.083696      0.536635     -0.744079
  H      -1.587749      0.260512      0.955722
  H      -0.658170      2.296290      0.067407
  H       2.377499     -0.040515      0.889786
  H       1.847905      0.248235     -0.808941
  H       0.534923     -1.409493      1.206339
