14
Coordinates from ORCA-job file
  C   -0.52534647970401     -0.96992378465792     -0.49063512548908
  C   -1.23195896988189      0.32954714207872     -0.08504882769567
  N   -0.26226737230359      1.41818117703481     -0.25673770146307
  O   0.79855164570378      1.19608272960235      0.68669903579327
  C   1.51948645843539      0.05379052175193      0.21992620858377
  N   0.73121094925649     -1.15475596398356      0.24256196983687
  H   -0.28989669852054     -0.92626170361488     -1.56120599374860
  H   -1.17049043488170     -1.83822486863384     -0.32169331960325
  H   -2.08369623618456      0.53663489328337     -0.74407913454100
  H   -1.58774948138305      0.26051248379665      0.95572243227774
  H   -0.65817023280756      2.29629026742610      0.06740682160424
  H   2.37749912596254     -0.04051450434726      0.88978603326678
  H   1.84790460641792      0.24823452190516     -0.80894102242220
  H   0.53492311989077     -1.40949291164162      1.20633862360020
