15
Coordinates from ORCA-job file
  C   1.87493465635885     -0.83772544420539      0.16954249187917
  N   2.50395885907523      0.33909574547396      0.19146781399875
  N   1.52169946747463      1.26988767278882      0.11512592669506
  C   0.29828478142213      0.70120582418421      0.02333454681204
  C   0.47538679315827     -0.65735131305247      0.05650595144619
  C   -0.87550629739535     -1.33042777525530      0.05471111844281
  N   -1.82446499162861     -0.21836166029278     -0.25215417332799
  C   -1.15674237263416      1.08469004861053      0.00281324914782
  H   2.45901188829178     -1.74777024118931      0.22589120286662
  H   1.77814977353977      2.24338581598149      0.10398024207888
  H   -0.98538107179533     -2.12512907461426     -0.69044544995229
  H   -1.11228144145809     -1.76046591864823      1.03630763430079
  H   -2.05753964763634     -0.26546882870853     -1.23713902847898
  H   -1.47305542307660      1.49372890772268      0.97168312770921
  H   -1.42635497369619      1.81090624120459     -0.77152465361808
