15
Coordinates from ORCA-job file E -359.085418318634
  C       1.762500     -0.859800      0.196900
  N       2.368200      0.332400     -0.005500
  N       1.456500      1.282600      0.155200
  C       0.290500      0.701300      0.480000
  C       0.440900     -0.624500      0.516600
  C      -0.794900     -1.304800      0.087300
  N      -1.779300     -0.220100     -0.128100
  C      -1.065000      1.066900      0.028800
  H       2.212600     -1.817700     -0.026600
  H       1.604500      2.286500     -0.089800
  H      -0.617200     -1.875100     -0.852300
  H      -1.151600     -1.987800      0.886100
  H      -2.144700     -0.285900     -1.107400
  H      -1.568300      1.690000      0.797000
  H      -1.014600      1.616200     -0.938100
15
Coordinates from ORCA-job file E -359.104964626778
  C       1.819045     -0.839489      0.190287
  N       2.439007      0.328287      0.022150
  N       1.484485      1.264882      0.149604
  C       0.279432      0.713585      0.430268
  C       0.449782     -0.642646      0.468683
  C      -0.825203     -1.328406      0.079651
  N      -1.798666     -0.215616     -0.123700
  C      -1.107498      1.093418      0.016702
  H       2.331689     -1.774758      0.009148
  H       1.676345      2.235118     -0.058303
  H      -0.677128     -1.909976     -0.842521
  H      -1.193294     -1.997584      0.871239
  H      -2.179662     -0.282157     -1.063716
  H      -1.613879      1.701545      0.781387
  H      -1.084357      1.653996     -0.930779
15
Coordinates from ORCA-job file E -359.110569879025
  C       1.845784     -0.835823      0.180696
  N       2.470961      0.332203      0.050355
  N       1.497979      1.261964      0.138933
  C       0.281235      0.711227      0.365908
  C       0.458525     -0.654211      0.404166
  C      -0.841064     -1.336749      0.070960
  N      -1.806065     -0.213827     -0.122344
  C      -1.123176      1.099615      0.008234
  H       2.402882     -1.756595      0.064770
  H       1.723539      2.231773     -0.017221
  H      -0.728263     -1.939840     -0.839160
  H      -1.207663     -1.989217      0.873637
  H      -2.223603     -0.282945     -1.042130
  H      -1.616769      1.694303      0.788583
  H      -1.134203      1.678323     -0.925288
15
Coordinates from ORCA-job file E -359.113802201700
  C       1.860078     -0.835689      0.174904
  N       2.486484      0.335835      0.077594
  N       1.506530      1.264311      0.128818
  C       0.285999      0.707340      0.304614
  C       0.464508     -0.658356      0.344469
  C      -0.847463     -1.340259      0.059930
  N      -1.808835     -0.213459     -0.123041
  C      -1.128708      1.101117     -0.000590
  H       2.436170     -1.750772      0.117128
  H       1.749155      2.236634      0.025885
  H      -0.771348     -1.961589     -0.841868
  H      -1.196162     -1.978576      0.882010
  H      -2.261404     -0.285138     -1.025099
  H      -1.597174      1.687676      0.801302
  H      -1.177731      1.691125     -0.925957
15
Coordinates from ORCA-job file E -359.116049171486
  C       1.869705     -0.835509      0.171958
  N       2.498212      0.337150      0.101523
  N       1.515159      1.266649      0.124254
  C       0.290356      0.705504      0.248767
  C       0.468691     -0.657320      0.290646
  C      -0.850504     -1.343401      0.050491
  N      -1.810460     -0.213934     -0.123372
  C      -1.132865      1.103189     -0.011238
  H       2.454447     -1.747102      0.155861
  H       1.768829      2.239611      0.072738
  H      -0.809523     -1.979785     -0.842531
  H      -1.175112     -1.968920      0.891476
  H      -2.293417     -0.289273     -1.008057
  H      -1.574893      1.685150      0.808014
  H      -1.218525      1.698191     -0.930429
15
Coordinates from ORCA-job file E -359.117588923657
  C       1.874875     -0.835922      0.177732
  N       2.503863      0.338731      0.130899
  N       1.520948      1.268355      0.118816
  C       0.294718      0.703439      0.198283
  C       0.472014     -0.656393      0.242094
  C      -0.850581     -1.343989      0.039453
  N      -1.812091     -0.214152     -0.119556
  C      -1.133391      1.102910     -0.020002
  H       2.459238     -1.747544      0.188576
  H       1.774988      2.243142      0.102831
  H      -0.840113     -1.989383     -0.848399
  H      -1.148399     -1.959896      0.897914
  H      -2.317105     -0.291210     -0.992137
  H      -1.545996      1.681711      0.817581
  H      -1.252870      1.700401     -0.933984
15
Coordinates from ORCA-job file E -359.118679029626
  C       1.880873     -0.835528      0.177790
  N       2.511576      0.338922      0.152842
  N       1.527150      1.269873      0.125017
  C       0.298289      0.703695      0.154369
  C       0.475438     -0.654349      0.194744
  C      -0.851694     -1.346438      0.033733
  N      -1.813478     -0.214444     -0.115896
  C      -1.136055      1.105336     -0.030800
  H       2.467823     -1.745246      0.206800
  H       1.785253      2.242304      0.142226
  H      -0.871032     -2.002653     -0.845282
  H      -1.125687     -1.952408      0.906097
  H      -2.337307     -0.295347     -0.975717
  H      -1.527940      1.684509      0.815097
  H      -1.283109      1.701975     -0.940921
15
Coordinates from ORCA-job file E -359.119410674437
  C       1.880863     -0.836285      0.192605
  N       2.510215      0.339761      0.186153
  N       1.528963      1.270555      0.120845
  C       0.301939      0.702660      0.112699
  C       0.478232     -0.654403      0.155882
  C      -0.849619     -1.345474      0.022275
  N      -1.815260     -0.214533     -0.107414
  C      -1.133888      1.103771     -0.035233
  H       2.463174     -1.748074      0.233781
  H       1.781268      2.245670      0.143983
  H      -0.892626     -2.002759     -0.855892
  H      -1.098545     -1.948349      0.905283
  H      -2.347787     -0.294398     -0.963115
  H      -1.497113      1.679519      0.827303
  H      -1.309717      1.702540     -0.939054
15
Coordinates from ORCA-job file E -359.119877893694
  C       1.884605     -0.835756      0.191254
  N       2.512844      0.341068      0.208456
  N       1.530189      1.270866      0.135413
  C       0.304965      0.701020      0.078202
  C       0.482284     -0.656078      0.111278
  C      -0.850397     -1.346607      0.017905
  N      -1.816265     -0.214136     -0.104040
  C      -1.134253      1.104664     -0.042621
  H       2.469319     -1.745495      0.243636
  H       1.783350      2.244769      0.168289
  H      -0.920772     -2.015060     -0.849505
  H      -1.078125     -1.938134      0.913729
  H      -2.356945     -0.295467     -0.953948
  H      -1.479920      1.682516      0.824934
  H      -1.330780      1.702029     -0.942883
15
Coordinates from ORCA-job file E -359.120077641711
  C       1.882819     -0.836008      0.203521
  N       2.510943      0.339948      0.233007
  N       1.530632      1.271108      0.135292
  C       0.307672      0.702482      0.039694
  C       0.484499     -0.654391      0.077632
  C      -0.849776     -1.345827      0.012644
  N      -1.817270     -0.214770     -0.108774
  C      -1.134357      1.103860     -0.042871
  H       2.465094     -1.746671      0.266883
  H       1.783440      2.245242      0.157158
  H      -0.941003     -2.021837     -0.846744
  H      -1.057909     -1.929422      0.918407
  H      -2.349295     -0.294513     -0.964318
  H      -1.456609      1.665205      0.844689
  H      -1.358780      1.715794     -0.926119
15
Coordinates from ORCA-job file E -359.120133007031
  C       1.881991     -0.836316      0.197609
  N       2.509041      0.340985      0.237161
  N       1.528616      1.271043      0.140993
  C       0.307712      0.700961      0.028020
  C       0.484982     -0.656109      0.059063
  C      -0.851975     -1.344408      0.016527
  N      -1.817759     -0.215200     -0.130448
  C      -1.136173      1.101776     -0.037033
  H       2.464079     -1.746849      0.263340
  H       1.781862      2.245554      0.152753
  H      -0.952445     -2.043295     -0.822718
  H      -1.056771     -1.901899      0.939784
  H      -2.320257     -0.291179     -1.004299
  H      -1.450219      1.645353      0.864645
  H      -1.372584      1.729783     -0.905297
15
Coordinates from ORCA-job file E -359.120207087313
  C       1.880197     -0.836602      0.192563
  N       2.506942      0.341061      0.234107
  N       1.526139      1.270980      0.139407
  C       0.306474      0.700116      0.016133
  C       0.483841     -0.657066      0.046872
  C      -0.856937     -1.341503      0.024935
  N      -1.818991     -0.215919     -0.166333
  C      -1.140299      1.097854     -0.026023
  H       2.462451     -1.746958      0.259761
  H       1.780626      2.245258      0.135411
  H      -0.964618     -2.070365     -0.786688
  H      -1.063925     -1.863030      0.968639
  H      -2.262838     -0.284734     -1.072235
  H      -1.446612      1.604825      0.899502
  H      -1.392350      1.756283     -0.865950
15
Coordinates from ORCA-job file E -359.120306754553
  C       1.878585     -0.836834      0.187037
  N       2.505338      0.340980      0.226775
  N       1.523485      1.271029      0.136933
  C       0.304235      0.699309      0.009734
  C       0.481765     -0.657825      0.041497
  C      -0.863356     -1.338052      0.033596
  N      -1.821930     -0.216677     -0.199187
  C      -1.145706      1.093056     -0.014679
  H       2.461916     -1.746636      0.254229
  H       1.780082      2.244352      0.114257
  H      -0.975883     -2.093910     -0.751652
  H      -1.076205     -1.824712      0.994155
  H      -2.193940     -0.276265     -1.137830
  H      -1.447719      1.562223      0.931683
  H      -1.410569      1.780161     -0.826449
15
Coordinates from ORCA-job file E -359.120388406188
  C       1.877648     -0.836821      0.181158
  N       2.505365      0.340265      0.209504
  N       1.521514      1.270990      0.130593
  C       0.300201      0.698958      0.017556
  C       0.477876     -0.657646      0.053614
  C      -0.871794     -1.334957      0.043134
  N      -1.829987     -0.217729     -0.221518
  C      -1.153228      1.088513     -0.003425
  H       2.463625     -1.745562      0.243944
  H       1.781117      2.242370      0.087749
  H      -0.981303     -2.108955     -0.724528
  H      -1.098737     -1.795842      1.012000
  H      -2.110002     -0.265530     -1.193100
  H      -1.461022      1.522757      0.956491
  H      -1.421172      1.799387     -0.793071
15
Coordinates from ORCA-job file E -359.120425912119
  C       1.874558     -0.837720      0.171390
  N       2.502954      0.339761      0.195982
  N       1.520247      1.270626      0.120294
  C       0.297988      0.700027      0.015871
  C       0.475192     -0.657809      0.050273
  C      -0.877654     -1.328877      0.055636
  N      -1.822560     -0.217890     -0.267477
  C      -1.158295      1.082163      0.008065
  H       2.458953     -1.747510      0.230824
  H       1.778974      2.242763      0.081245
  H      -0.990397     -2.131173     -0.680409
  H      -1.115585     -1.748984      1.041250
  H      -2.038411     -0.260403     -1.256402
  H      -1.469537      1.475229      0.985111
  H      -1.436326      1.819999     -0.751554
15
Coordinates from ORCA-job file E -359.120458374033
  C       1.875918     -0.837398      0.173460
  N       2.504653      0.339520      0.197106
  N       1.522688      1.270112      0.120054
  C       0.299386      0.701201      0.025368
  C       0.476487     -0.657183      0.058493
  C      -0.872546     -1.332488      0.051041
  N      -1.822523     -0.217893     -0.241170
  C      -1.154421      1.087111      0.000078
  H       2.459650     -1.747590      0.230739
  H       1.779712      2.243398      0.101549
  H      -0.978845     -2.116760     -0.705688
  H      -1.107718     -1.778052      1.026395
  H      -2.091352     -0.268425     -1.216542
  H      -1.471663      1.509725      0.963049
  H      -1.419326      1.804922     -0.783830
15
Coordinates from ORCA-job file E -359.120470315409
  C       1.875347     -0.837509      0.171241
  N       2.504207      0.339272      0.193562
  N       1.521835      1.269962      0.118012
  C       0.298446      0.701091      0.024420
  C       0.475651     -0.657420      0.057790
  C      -0.874922     -1.331168      0.053000
  N      -1.825442     -0.218309     -0.247263
  C      -1.156392      1.085345      0.002224
  H       2.459731     -1.747336      0.228113
  H       1.779083      2.243061      0.099163
  H      -0.983569     -2.122164     -0.696409
  H      -1.111459     -1.766479      1.032229
  H      -2.065110     -0.265422     -1.230526
  H      -1.472599      1.498129      0.969464
  H      -1.424709      1.809149     -0.774921
15
Coordinates from ORCA-job file E -359.120473005271
  C       1.874988     -0.837683      0.169917
  N       2.503980      0.339138      0.191812
  N       1.521699      1.269919      0.115838
  C       0.298269      0.701216      0.023630
  C       0.475406     -0.657373      0.056948
  C      -0.875508     -1.330499      0.054472
  N      -1.824607     -0.218342     -0.251865
  C      -1.156804      1.084704      0.003010
  H       2.459164     -1.747658      0.226397
  H       1.778465      2.243267      0.101720
  H      -0.985051     -2.124739     -0.691239
  H      -1.112606     -1.761190      1.035667
  H      -2.057807     -0.265218     -1.236797
  H      -1.473144      1.493678      0.971875
  H      -1.426344      1.810981     -0.771285
15
Coordinates from ORCA-job file E -359.120473247761
  C       1.874935     -0.837725      0.169542
  N       2.503959      0.339096      0.191468
  N       1.521699      1.269888      0.115126
  C       0.298285      0.701206      0.023335
  C       0.475387     -0.657351      0.056506
  C      -0.875506     -1.330428      0.054711
  N      -1.824465     -0.218362     -0.252154
  C      -1.156742      1.084690      0.002813
  H       2.459012     -1.747770      0.225891
  H       1.778150      2.243386      0.103980
  H      -0.985381     -2.125129     -0.690445
  H      -1.112281     -1.760466      1.036308
  H      -2.057540     -0.265469     -1.237139
  H      -1.473055      1.493729      0.971683
  H      -1.426355      1.810906     -0.771525
