10
Coordinates from ORCA-job file E -155.808423019266
  C      -0.008100     -1.266300     -0.647000
  C       1.046700     -0.259000     -0.227600
  C       0.004700      0.724200      0.369500
  C      -1.050500     -0.325600     -0.070700
  H       1.636800      0.084700     -1.088300
  H       1.777100     -0.707300      0.460000
  H       0.079800      0.893200      1.446200
  H      -0.063100      1.695700     -0.125400
  H      -1.782700     -0.024200     -0.832500
  H      -1.640800     -0.815500      0.715900
10
Coordinates from ORCA-job file E -155.812530668229
  C      -0.008290     -1.287652     -0.658287
  C       1.068779     -0.271195     -0.235831
  C       0.004512      0.697262      0.355699
  C      -1.072712     -0.339209     -0.075624
  H       1.668244      0.118613     -1.084161
  H       1.809747     -0.681926      0.480662
  H       0.079914      0.871561      1.438589
  H      -0.063527      1.676877     -0.138686
  H      -1.815231      0.007742     -0.823531
  H      -1.671536     -0.792172      0.741270
10
Coordinates from ORCA-job file E -155.813470970275
  C      -0.008501     -1.310216     -0.670554
  C       1.076013     -0.283031     -0.242548
  C       0.004349      0.677067      0.345260
  C      -1.080077     -0.351519     -0.081217
  H       1.678072      0.143714     -1.072097
  H       1.818878     -0.657119      0.493035
  H       0.079856      0.855612      1.430692
  H      -0.063702      1.661101     -0.147426
  H      -1.824675      0.032337     -0.809970
  H      -1.680314     -0.768045      0.754925
10
Coordinates from ORCA-job file E -155.813506658869
  C      -0.008603     -1.315347     -0.674017
  C       1.075720     -0.285918     -0.243995
  C       0.004307      0.674030      0.343535
  C      -1.079831     -0.354391     -0.082682
  H       1.677545      0.147998     -1.068671
  H       1.817350     -0.652433      0.495181
  H       0.079785      0.854193      1.428459
  H      -0.063662      1.658404     -0.147885
  H      -1.823883      0.036736     -0.806617
  H      -1.678826     -0.763371      0.756794
10
Coordinates from ORCA-job file E -155.813508975790
  C      -0.008683     -1.315564     -0.675125
  C       1.075370     -0.286482     -0.244245
  C       0.004288      0.674189      0.343406
  C      -1.079499     -0.354933     -0.082970
  H       1.677219      0.148171     -1.068125
  H       1.815971     -0.652649      0.495737
  H       0.079754      0.855208      1.427991
  H      -0.063658      1.658543     -0.147561
  H      -1.823471      0.036980     -0.806114
  H      -1.677393     -0.763562      0.757106
10
Coordinates from ORCA-job file E -155.813509948631
  C      -0.008828     -1.314789     -0.676701
  C       1.075178     -0.286847     -0.244399
  C       0.004257      0.674619      0.343213
  C      -1.079319     -0.355287     -0.083138
  H       1.677624      0.148043     -1.067541
  H       1.814324     -0.653741      0.496564
  H       0.079715      0.856709      1.427566
  H      -0.063698      1.658918     -0.147638
  H      -1.823752      0.036880     -0.805469
  H      -1.675600     -0.764607      0.757643
