10
Coordinates from ORCA-job file
  C   -0.00882820613726     -1.31478883606416     -0.67670099651687
  C   1.07517773903375     -0.28684726919508     -0.24439891874407
  C   0.00425657561522      0.67461932754652      0.34321316051851
  C   -1.07931891478319     -0.35528684985897     -0.08313834580467
  H   1.67762449190616      0.14804337075434     -1.06754110581353
  H   1.81432408490809     -0.65374068354116      0.49656443637077
  H   0.07971489474153      0.85670929578693      1.42756560102603
  H   -0.06369812013554      1.65891784794224     -0.14763803632997
  H   -1.82375246292928      0.03688037601852     -0.80546877657538
  H   -1.67560008221949     -0.76460657938917      0.75764298186918
