15
Coordinates from ORCA-job file E -359.086177524369
  C       1.627500      0.807900     -0.158400
  N       2.262700     -0.363400      0.058300
  N       1.400200     -1.366600     -0.048600
  C       0.233700     -0.822400     -0.440400
  C       0.329900      0.508500     -0.505500
  C      -0.951800      1.147200     -0.157600
  N      -1.903600      0.027100      0.021800
  C      -1.131300     -1.233600     -0.065900
  H       2.034100      1.783400      0.073400
  H       3.246300     -0.471900      0.390500
  H      -1.289100      1.803700     -0.986500
  H      -0.847700      1.737100      0.780800
  H      -2.329500      0.096100      0.976200
  H      -1.119400     -1.763700      0.912800
  H      -1.562000     -1.889300     -0.851000
15
Coordinates from ORCA-job file E -359.106075240078
  C       1.662187      0.839912     -0.145002
  N       2.271256     -0.359295      0.050247
  N       1.417608     -1.390876     -0.028485
  C       0.259034     -0.833919     -0.382920
  C       0.348446      0.553765     -0.456946
  C      -0.980041      1.177751     -0.155559
  N      -1.898160      0.016916      0.017325
  C      -1.139288     -1.261397     -0.057392
  H       2.138111      1.789121      0.060208
  H       3.232275     -0.501665      0.330474
  H      -1.339006      1.812014     -0.979355
  H      -0.913678      1.782506      0.761145
  H      -2.337570      0.081314      0.931522
  H      -1.149177     -1.806745      0.896708
  H      -1.572000     -1.899304     -0.842073
15
Coordinates from ORCA-job file E -359.112454352435
  C       1.681987      0.852621     -0.126412
  N       2.286600     -0.356564      0.041656
  N       1.429187     -1.394452     -0.011565
  C       0.269006     -0.826876     -0.313414
  C       0.355755      0.579442     -0.391498
  C      -0.998876      1.187927     -0.150421
  N      -1.899485      0.010557      0.015494
  C      -1.143613     -1.269698     -0.054898
  H       2.211263      1.783101      0.027902
  H       3.254941     -0.524415      0.264749
  H      -1.358261      1.801272     -0.986479
  H      -0.973062      1.814182      0.750359
  H      -2.372318      0.072921      0.908382
  H      -1.185070     -1.836242      0.882809
  H      -1.558054     -1.893676     -0.856763
15
Coordinates from ORCA-job file E -359.116177556898
  C       1.693992      0.858437     -0.107773
  N       2.299738     -0.355923      0.033498
  N       1.439625     -1.396366     -0.003088
  C       0.273145     -0.820628     -0.248921
  C       0.359226      0.591577     -0.327473
  C      -1.008631      1.191496     -0.140957
  N      -1.901426      0.007705      0.016766
  C      -1.146369     -1.271972     -0.050699
  H       2.252801      1.779466     -0.008185
  H       3.276567     -0.536133      0.200519
  H      -1.348619      1.787343     -0.997684
  H      -1.025268      1.836782      0.746285
  H      -2.407568      0.068782      0.889987
  H      -1.227009     -1.856089      0.873780
  H      -1.530204     -1.884375     -0.876153
15
Coordinates from ORCA-job file E -359.118731611611
  C       1.701497      0.861257     -0.093725
  N       2.309483     -0.356213      0.025365
  N       1.447797     -1.397871      0.003384
  C       0.275458     -0.815863     -0.189059
  C       0.360733      0.594943     -0.267993
  C      -1.013086      1.192855     -0.129841
  N      -1.903345      0.006759      0.017786
  C      -1.147998     -1.272077     -0.045129
  H       2.274031      1.778029     -0.043639
  H       3.292613     -0.541415      0.140801
  H      -1.323846      1.774567     -1.007116
  H      -1.069666      1.852863      0.744743
  H      -2.437727      0.066161      0.873322
  H      -1.270116     -1.870606      0.865391
  H      -1.495828     -1.873289     -0.894388
15
Coordinates from ORCA-job file E -359.120482918855
  C       1.706137      0.862560     -0.083459
  N       2.316493     -0.356930      0.015537
  N       1.454381     -1.399006      0.005956
  C       0.277021     -0.812563     -0.136438
  C       0.361151      0.594280     -0.211637
  C      -1.014848      1.193313     -0.119808
  N      -1.905593      0.006644      0.016417
  C      -1.149105     -1.271565     -0.038824
  H       2.282880      1.777914     -0.070826
  H       3.303635     -0.543547      0.087020
  H      -1.293074      1.762647     -1.016120
  H      -1.107310      1.865152      0.742601
  H      -2.460066      0.065122      0.858960
  H      -1.309560     -1.880712      0.858687
  H      -1.462143     -1.863208     -0.908167
15
Coordinates from ORCA-job file E -359.121631129460
  C       1.709225      0.863292     -0.079350
  N       2.321302     -0.357456      0.003360
  N       1.458910     -1.399539      0.009244
  C       0.277982     -0.810719     -0.089012
  C       0.361419      0.593100     -0.159550
  C      -1.015354      1.193528     -0.111300
  N      -1.908275      0.006752      0.012322
  C      -1.149933     -1.271071     -0.033099
  H       2.286236      1.778386     -0.091870
  H       3.310181     -0.544761      0.041585
  H      -1.262220      1.752770     -1.023022
  H      -1.140142      1.874103      0.740116
  H      -2.473662      0.064392      0.847558
  H      -1.344549     -1.888334      0.851878
  H      -1.431119     -1.854342     -0.918958
15
Coordinates from ORCA-job file E -359.122305869460
  C       1.710567      0.863766     -0.069273
  N       2.323770     -0.358554     -0.012978
  N       1.461829     -1.400464     -0.002795
  C       0.278791     -0.809568     -0.055959
  C       0.361171      0.593613     -0.108084
  C      -1.015632      1.193128     -0.107154
  N      -1.911283      0.006965      0.008871
  C      -1.150580     -1.270419     -0.027865
  H       2.286552      1.779132     -0.091383
  H       3.313362     -0.545548      0.002330
  H      -1.231151      1.737040     -1.036200
  H      -1.172289      1.886377      0.728235
  H      -2.475894      0.065452      0.844778
  H      -1.369372     -1.890374      0.849646
  H      -1.409841     -1.850448     -0.922269
15
Coordinates from ORCA-job file E -359.122435961607
  C       1.711626      0.862509     -0.099922
  N       2.324649     -0.357534     -0.017571
  N       1.460322     -1.398316      0.046363
  C       0.276690     -0.808771      0.000895
  C       0.362049      0.591913     -0.084939
  C      -1.016618      1.193472     -0.099261
  N      -1.914087      0.007207      0.010377
  C      -1.150436     -1.268840     -0.030333
  H       2.287900      1.776860     -0.148668
  H       3.313769     -0.547791     -0.004907
  H      -1.219936      1.742484     -1.026986
  H      -1.189288      1.882163      0.737563
  H      -2.469814      0.060089      0.852797
  H      -1.405295     -1.913869      0.817592
  H      -1.371532     -1.821476     -0.953100
15
Coordinates from ORCA-job file E -359.122651596703
  C       1.710207      0.864609     -0.063820
  N       2.324338     -0.357994     -0.037820
  N       1.462092     -1.401218     -0.010358
  C       0.277403     -0.810320     -0.010734
  C       0.360824      0.592824     -0.041595
  C      -1.015855      1.191784     -0.104463
  N      -1.917075      0.008419      0.011336
  C      -1.153130     -1.269132     -0.026751
  H       2.284693      1.780668     -0.093683
  H       3.313953     -0.544980     -0.031756
  H      -1.190436      1.710384     -1.055930
  H      -1.215573      1.906116      0.703125
  H      -2.454522      0.065496      0.865279
  H      -1.401359     -1.900616      0.833960
  H      -1.385558     -1.835940     -0.936889
15
Coordinates from ORCA-job file E -359.122785036434
  C       1.707591      0.863658     -0.062839
  N       2.321946     -0.358709     -0.029740
  N       1.458863     -1.400181      0.003413
  C       0.274816     -0.808981     -0.004113
  C       0.358180      0.593312     -0.040716
  C      -1.019979      1.187089     -0.115998
  N      -1.917530      0.009713      0.056776
  C      -1.156342     -1.264546     -0.038055
  H       2.280490      1.780636     -0.092784
  H       3.312098     -0.544534     -0.014159
  H      -1.200582      1.668181     -1.086731
  H      -1.219616      1.930399      0.664047
  H      -2.400978      0.065235      0.943338
  H      -1.414106     -1.930988      0.791990
  H      -1.384850     -1.790184     -0.974531
15
Coordinates from ORCA-job file E -359.122890569800
  C       1.705300      0.863339     -0.060834
  N       2.319491     -0.359054     -0.022394
  N       1.455677     -1.399594      0.015125
  C       0.272234     -0.807939      0.003061
  C       0.355792      0.594195     -0.037691
  C      -1.025128      1.181911     -0.126291
  N      -1.917826      0.010913      0.098474
  C      -1.160237     -1.259194     -0.048513
  H       2.278033      1.780385     -0.091455
  H       3.309700     -0.544493      0.002627
  H      -1.210826      1.623625     -1.114907
  H      -1.228419      1.953236      0.624246
  H      -2.339921      0.063932      1.016621
  H      -1.427957     -1.958044      0.750220
  H      -1.385911     -1.743118     -1.008389
15
Coordinates from ORCA-job file E -359.122987340457
  C       1.703219      0.863269     -0.060950
  N       2.316846     -0.359300     -0.015156
  N       1.452099     -1.399108      0.028702
  C       0.269461     -0.806853      0.011229
  C       0.353573      0.595557     -0.035169
  C      -1.031328      1.176437     -0.134595
  N      -1.919229      0.011999      0.135315
  C      -1.164491     -1.253027     -0.058501
  H       2.277082      1.779597     -0.093529
  H       3.306721     -0.545147      0.021571
  H      -1.222852      1.579156     -1.138491
  H      -1.239791      1.972935      0.587137
  H      -2.271570      0.060976      1.083578
  H      -1.442477     -1.982036      0.708336
  H      -1.387264     -1.694355     -1.039578
15
Coordinates from ORCA-job file E -359.122872112141
  C       1.705220      0.862460     -0.050869
  N       2.314524     -0.363274     -0.004300
  N       1.450740     -1.399756      0.010357
  C       0.273190     -0.798136     -0.017453
  C       0.350549      0.607574     -0.062688
  C      -1.039138      1.174763     -0.147096
  N      -1.919208      0.005746      0.146437
  C      -1.163739     -1.252197     -0.056664
  H       2.285503      1.774799     -0.071986
  H       3.303617     -0.548004      0.048380
  H      -1.257452      1.571951     -1.148766
  H      -1.227095      1.972915      0.576823
  H      -2.242576      0.065240      1.104541
  H      -1.434532     -1.986988      0.708822
  H      -1.399602     -1.686992     -1.035636
15
Coordinates from ORCA-job file E -359.123188717402
  C       1.701845      0.863553     -0.057536
  N       2.313257     -0.360352     -0.000927
  N       1.447519     -1.399536      0.035355
  C       0.267537     -0.803802      0.000178
  C       0.350488      0.600491     -0.053163
  C      -1.041581      1.171091     -0.146984
  N      -1.923357      0.011167      0.169322
  C      -1.169707     -1.246982     -0.067549
  H       2.280059      1.777378     -0.086408
  H       3.301587     -0.546853      0.059809
  H      -1.254313      1.536325     -1.160486
  H      -1.244259      1.989211      0.551123
  H      -2.178455      0.057987      1.149668
  H      -1.447378     -2.004580      0.671060
  H      -1.403243     -1.644997     -1.063561
15
Coordinates from ORCA-job file E -359.123243592839
  C       1.701054      0.864670     -0.053106
  N       2.313502     -0.358900     -0.000848
  N       1.448155     -1.400133      0.028378
  C       0.266743     -0.806619     -0.008539
  C       0.350950      0.597838     -0.055129
  C      -1.039963      1.172613     -0.147070
  N      -1.924389      0.012877      0.162906
  C      -1.170980     -1.248593     -0.067727
  H       2.278302      1.779337     -0.076860
  H       3.301607     -0.545868      0.058792
  H      -1.251147      1.540335     -1.159623
  H      -1.242681      1.989951      0.552217
  H      -2.177880      0.058420      1.143531
  H      -1.439374     -1.999863      0.680644
  H      -1.413897     -1.655965     -1.057665
15
Coordinates from ORCA-job file E -359.123259860957
  C       1.699839      0.865707     -0.047442
  N       2.312319     -0.358067      0.003239
  N       1.447499     -1.400390      0.023857
  C       0.265697     -0.807429     -0.015436
  C       0.349916      0.597866     -0.057476
  C      -1.041874      1.171354     -0.151027
  N      -1.925610      0.013748      0.170721
  C      -1.173646     -1.247620     -0.070753
  H       2.277802      1.780017     -0.066516
  H       3.300059     -0.545503      0.064910
  H      -1.256660      1.527343     -1.166754
  H      -1.244681      1.995826      0.539541
  H      -2.147877      0.058705      1.159088
  H      -1.439377     -2.002375      0.675004
  H      -1.423406     -1.649082     -1.061056
15
Coordinates from ORCA-job file E -359.123262238494
  C       1.700061      0.865748     -0.048014
  N       2.312604     -0.357904      0.003840
  N       1.448154     -1.400370      0.023648
  C       0.266195     -0.807719     -0.016212
  C       0.350118      0.597697     -0.059435
  C      -1.041160      1.172234     -0.150222
  N      -1.925234      0.013436      0.166276
  C      -1.173061     -1.248714     -0.069858
  H       2.278098      1.779988     -0.067453
  H       3.300480     -0.545326      0.062804
  H      -1.256622      1.533643     -1.163914
  H      -1.241823      1.993495      0.544905
  H      -2.156815      0.059084      1.152371
  H      -1.438514     -2.000209      0.679409
  H      -1.422480     -1.654984     -1.058243
15
Coordinates from ORCA-job file E -359.123262626245
  C       1.699842      0.865735     -0.047588
  N       2.312534     -0.357870      0.004399
  N       1.448237     -1.400358      0.023868
  C       0.266189     -0.807888     -0.015940
  C       0.349966      0.597529     -0.059348
  C      -1.041181      1.171993     -0.150587
  N      -1.925003      0.013470      0.167457
  C      -1.173230     -1.248549     -0.070083
  H       2.277655      1.780109     -0.067135
  H       3.300520     -0.545113      0.062370
  H      -1.256769      1.532443     -1.164647
  H      -1.241763      1.993875      0.543771
  H      -2.155128      0.059097      1.153908
  H      -1.439446     -2.000527      0.678402
  H      -1.422424     -1.653846     -1.058946
