15
Coordinates from ORCA-job file
  C   1.69984243899386      0.86573485293865     -0.04758789343154
  N   2.31253399785078     -0.35786998155809      0.00439881977964
  N   1.44823652199686     -1.40035782281595      0.02386784122014
  C   0.26618901077559     -0.80788825618268     -0.01593981044524
  C   0.34996631371074      0.59752934462848     -0.05934820378075
  C   -1.04118057367927      1.17199332964177     -0.15058740432889
  N   -1.92500309950188      0.01346983996368      0.16745712863885
  C   -1.17323047434788     -1.24854868027810     -0.07008275157232
  H   2.27765515119823      1.78010861999185     -0.06713541457247
  H   3.30051982209762     -0.54511321182329      0.06237043885823
  H   -1.25676868506132      1.53244303791626     -1.16464739893114
  H   -1.24176270857011      1.99387496654999      0.54377094972941
  H   -2.15512751922522      0.05909670989453      1.15390794727501
  H   -1.43944640296055     -2.00052658079188      0.67840199273752
  H   -1.42242379327747     -1.65384616807522     -1.05894624117644
