8
Coordinates from ORCA-job file E -191.375766875795
  C       0.008100      0.060700      1.115600
  C      -0.988300      0.020700      0.003000
  O      -0.007800     -0.060000     -1.064700
  C       0.988200     -0.021500     -0.009000
  H      -1.615800      0.922800     -0.050000
  H      -1.655500     -0.852700      0.047200
  H       1.653200      0.852800     -0.069700
  H       1.617900     -0.922800      0.027600
8
Coordinates from ORCA-job file E -191.388383763200
  C       0.007654      0.057289      1.055043
  C      -1.020169      0.021524      0.005730
  O      -0.007435     -0.057463     -1.015563
  C       1.020119     -0.022050     -0.006661
  H      -1.646538      0.929655     -0.048520
  H      -1.686757     -0.857954      0.049273
  H       1.684252      0.858334     -0.068604
  H       1.648873     -0.929335      0.029303
8
Coordinates from ORCA-job file E -191.390981687035
  C       0.007243      0.054824      1.009424
  C      -1.045587      0.022129      0.007601
  O      -0.007080     -0.056243     -0.989523
  C       1.045586     -0.022545     -0.005033
  H      -1.669810      0.932070     -0.044326
  H      -1.710354     -0.858797      0.053497
  H       1.707599      0.859756     -0.064797
  H       1.672405     -0.931192      0.033156
8
Coordinates from ORCA-job file E -191.391124666145
  C       0.007204      0.054700      1.008182
  C      -1.048776      0.022225      0.008365
  O      -0.007074     -0.056717     -0.995317
  C       1.048798     -0.022595     -0.004274
  H      -1.672066      0.932103     -0.042885
  H      -1.712795     -0.858450      0.054875
  H       1.709841      0.859710     -0.063420
  H       1.674867     -0.930976      0.034474
8
Coordinates from ORCA-job file E -191.391195304127
  C       0.007152      0.054401      1.005211
  C      -1.052362      0.022377      0.010288
  O      -0.007074     -0.057383     -1.001566
  C       1.052438     -0.022617     -0.002349
  H      -1.673472      0.932916     -0.041502
  H      -1.714671     -0.858768      0.056235
  H       1.711249      0.860489     -0.062091
  H       1.676740     -0.931416      0.035774
8
Coordinates from ORCA-job file E -191.391201533948
  C       0.007147      0.054277      1.004610
  C      -1.052523      0.022409      0.011197
  O      -0.007084     -0.057595     -1.002295
  C       1.052622     -0.022604     -0.001434
  H      -1.672586      0.933572     -0.041644
  H      -1.714092     -0.859306      0.056122
  H       1.710374      0.861190     -0.062218
  H       1.676142     -0.931942      0.035663
8
Coordinates from ORCA-job file E -191.391203953127
  C       0.007150      0.054142      1.004475
  C      -1.052275      0.022411      0.011980
  O      -0.007098     -0.057816     -1.002184
  C       1.052394     -0.022606     -0.000645
  H      -1.671258      0.934277     -0.042054
  H      -1.713191     -0.859880      0.055740
  H       1.709054      0.861959     -0.062597
  H       1.675224     -0.932488      0.035285
