8
Coordinates from ORCA-job file
  C   0.00714956042157      0.05414190649426      1.00447535478803
  C   -1.05227460297960      0.02241107216400      0.01197972640535
  O   -0.00709795378409     -0.05781571721016     -1.00218415062764
  C   1.05239384443313     -0.02260649113080     -0.00064517214956
  H   -1.67125761445453      0.93427735367120     -0.04205395174953
  H   -1.71319126287570     -0.85987958523731      0.05573996177693
  H   1.70905421889090      0.86195915743621     -0.06259709364649
  H   1.67522381034831     -0.93248769618740      0.03528532520291
