8
Coordinates from ORCA-job file E -191.508111134268
  C       0.008100      0.061500      1.121100
  C      -0.999400      0.021300      0.004800
  O      -0.007100     -0.054200     -0.987200
  C       0.999400     -0.021500     -0.007200
  H      -1.581600      0.965000     -0.074600
  H      -1.620900     -0.900000      0.028100
  H       1.620400      0.896400     -0.093900
  H       1.581100     -0.968600      0.008800
8
Coordinates from ORCA-job file E -191.512360829676
  C       0.008109      0.061589      1.127207
  C      -0.992068      0.020685     -0.003868
  O      -0.007388     -0.057107     -1.033415
  C       0.991939     -0.021801     -0.015786
  H      -1.591926      0.952761     -0.059425
  H      -1.631039     -0.885466      0.041756
  H       1.630392      0.883751     -0.078884
  H       1.591981     -0.954512      0.022315
8
Coordinates from ORCA-job file E -191.513597363576
  C       0.008069      0.061038      1.122173
  C      -0.986083      0.020289     -0.008576
  O      -0.007611     -0.059151     -1.061098
  C       0.985877     -0.021935     -0.020452
  H      -1.605144      0.940253     -0.048026
  H      -1.644279     -0.870830      0.051548
  H       1.643221      0.870698     -0.067637
  H       1.605950     -0.940461      0.031968
8
Coordinates from ORCA-job file E -191.513883087970
  C       0.008039      0.060597      1.116537
  C      -0.983532      0.020176     -0.008649
  O      -0.007689     -0.059801     -1.067052
  C       0.983319     -0.021931     -0.020520
  H      -1.614642      0.932830     -0.044558
  H      -1.653950     -0.862399      0.054041
  H       1.652452      0.862870     -0.064268
  H       1.616004     -0.932441      0.034370
8
Coordinates from ORCA-job file E -191.513985191644
  C       0.008023      0.060312      1.113341
  C      -0.982473      0.020158     -0.006963
  O      -0.007698     -0.059940     -1.064702
  C       0.982278     -0.021893     -0.018838
  H      -1.621675      0.927867     -0.044819
  H      -1.661318     -0.856930      0.053112
  H       1.659280      0.857605     -0.064603
  H       1.623583     -0.927280      0.033372
8
Coordinates from ORCA-job file E -191.514002077824
  C       0.008027      0.060252      1.114010
  C      -0.982513      0.020163     -0.005676
  O      -0.007677     -0.059920     -1.060955
  C       0.982333     -0.021883     -0.017553
  H      -1.623589      0.926680     -0.046458
  H      -1.663599     -0.855642      0.051281
  H       1.661129      0.856336     -0.066266
  H       1.625889     -0.926087      0.031517
8
Coordinates from ORCA-job file E -191.514004785032
  C       0.008033      0.060221      1.115376
  C      -0.982632      0.020138     -0.005136
  O      -0.007664     -0.060009     -1.059013
  C       0.982457     -0.021907     -0.017012
  H      -1.623801      0.926559     -0.047515
  H      -1.664211     -0.855420      0.050151
  H       1.661328      0.856208     -0.067332
  H       1.626491     -0.925889      0.030381
8
Coordinates from ORCA-job file E -191.514005131992
  C       0.008034      0.060162      1.116027
  C      -0.982645      0.020092     -0.005092
  O      -0.007663     -0.060175     -1.058656
  C       0.982469     -0.021949     -0.016967
  H      -1.623660      0.926609     -0.047760
  H      -1.664435     -0.855312      0.049850
  H       1.661190      0.856264     -0.067582
  H       1.626710     -0.925790      0.030080
