8
Coordinates from ORCA-job file
  C   0.00803447328464      0.06016184463856      1.11602748280667
  C   -0.98264540624942      0.02009171782965     -0.00509228624630
  O   -0.00766291126622     -0.06017516308039     -1.05865583338124
  C   0.98246891852113     -0.02194854973039     -0.01696704932178
  H   -1.62366011886024      0.92660867446549     -0.04776023119118
  H   -1.66443483053275     -0.85531233059012      0.04985002130514
  H   1.66119007667327      0.85626405905191     -0.06758170562624
  H   1.62670979842960     -0.92579025258471      0.03007960165494
